<OpenMD version=2>
  <MetaData>

molecule {
  name = "methanol";
  atom[0] { type = "CT"; position( -5.96684, 1.08283, -0.00928);}
  atom[1] { type = "OH"; position( -4.93201, 2.04823, 0.02864);}
  atom[2] { type = "H1"; position( -5.60539, 0.17925, -0.5063);}
  atom[3] { type = "H1"; position( -6.826, 1.48931, -0.54848);}
  atom[4] { type = "H1"; position( -6.26343, 0.83944, 1.01366);}
  atom[5] { type = "HO"; position( -4.68999, 2.24405, -0.89252);}

  bond { members(1, 5); }
  bond { members(0, 3); }
  bond { members(0, 2); }
  bond { members(0, 1); }
  bond { members(0, 4); }

}


component{
  type = methanol;
		nMol = 108;
}

forceField = "Amber";
ensemble = NVE;
electrostaticSummationMethod = "shifted_force";
electrostaticScreeningMethod = "damped";
cutoffRadius = 9;
dampingAlpha = 0.2;
targetTemp = 300;
tauThermostat = 100;
dt = 1.0;
runTime = 2.5e4;
tempSet = "false";
sampleTime = 1000;
statusTime = 10;

## Last run using OpenMD Version: 2.3 Revision: 2055
  </MetaData>
  <Snapshot>
    <FrameData>
        Time: 25000
        Hmat: {{ 19.36269638, 0, 0 }, { 0, 19.36269638, 0 }, { 0, 0, 19.36269638 }}
  Thermostat: -0.0001642766318 , 0.1921611472
    Barostat: {{ 0, 0, 0 }, { 0, 0, 0 }, { 0, 0, 0 }}
    </FrameData>
    <StuntDoubles>
         0      pv       0.3864013235       -9.477026395       -13.17605687  3.166554e-03 -3.971076e-03  4.646154e-03
         1      pv        1.437831088       -8.489767608       -13.20860967  5.683257e-03  2.544565e-03 -2.208356e-04
         2      pv      -0.4655046402       -8.895347478       -12.76708706 -1.223337e-02 -2.071016e-02 -1.151855e-02
         3      pv       0.7740312928       -10.28070903       -12.50539016 -5.704475e-03 -1.518127e-02  1.606582e-02
         4      pv      0.01133414538       -9.803542922       -14.14040316  1.188836e-02  2.063477e-02  1.943724e-02
         5      pv        1.728509041       -8.380668663       -12.22566427 -7.790963e-04 -3.006798e-03  1.392844e-02
         6      pv       0.8700520919       -3.488908862       0.8017045796  4.081899e-03  4.927522e-03 -8.410108e-03
         7      pv        1.533106212        -3.45372242       -0.512167524  3.778589e-03 -1.012515e-03 -3.187934e-03
         8      pv        0.672198835       -4.531423712        1.113651022  9.686949e-03  1.903995e-03 -3.394968e-03
         9      pv       -0.169811766       -3.027207792       0.7636627942 -1.541824e-02 -2.912419e-02  1.742610e-02
        10      pv         1.53651302       -3.083759135        1.593341774  1.083066e-02 -2.410940e-03  2.660563e-03
        11      pv       0.8666869076       -3.927705952       -1.107158218  2.499775e-02 -2.829630e-02 -3.096133e-02
        12      pv      -0.3406786368        3.270926019       -15.79882926  8.388236e-03 -7.369349e-03 -4.524982e-03
        13      pv       -0.947205435        3.622410167       -14.62026178 -1.967606e-03 -4.432121e-03 -3.691185e-03
        14      pv       0.6496244227        3.049574288       -15.66382775  1.436392e-03  1.922589e-02  1.068978e-02
        15      pv      -0.6451936881        4.111360221       -16.54026735 -1.466459e-02  5.751991e-03  2.301352e-02
        16      pv       -0.839889614        2.321340284       -16.10504406  1.843253e-02  3.932869e-03  1.080044e-02
        17      pv      -0.3708285302        3.212348294       -13.99597625  1.592539e-02 -2.535258e-03 -2.031297e-02
        18      pv        3.355840895        -1.09074264       -2.061777987  1.255626e-03 -5.100819e-03 -6.359189e-03
        19      pv         3.89533507       -2.213050611       -1.360339543 -2.134134e-03  2.296200e-03 -8.082047e-04
        20      pv        3.740798759       -1.150078273       -3.142117876  1.432866e-02 -1.118948e-02 -1.212323e-02
        21      pv        3.611352351      -0.2050221283       -1.590042549  1.349387e-02 -1.713862e-03  4.098328e-02
        22      pv        2.296534907       -1.041091205       -2.077650444 -8.200550e-03  2.844043e-02 -1.470655e-02
        23      pv        3.064317325       -2.778594326       -1.156148132 -1.430550e-02  6.567439e-03  1.310155e-02
        24      pv       -5.175425819       -9.090215172       -7.694304058 -6.754154e-03  7.336873e-03  6.413239e-04
        25      pv       -5.056934469       -8.723543889       -6.357471478 -2.110571e-03 -2.014651e-03  4.313552e-03
        26      pv       -4.446421854       -9.946523799       -7.918747464  3.773981e-02  1.105703e-02  9.688263e-03
        27      pv       -4.880439416       -8.207550738       -8.286614626 -5.783969e-03 -4.088066e-03  2.098177e-03
        28      pv       -6.235736458       -9.246549435       -7.894194307  9.086195e-04  1.102093e-02  4.955109e-03
        29      pv       -5.748019082       -9.288930768       -5.885115419 -2.737660e-02 -1.594517e-02 -2.208170e-02
        30      pv       -8.892927392       -4.895761315        9.680959176 -1.956005e-03  2.230923e-03  2.294931e-03
        31      pv       -10.21780752       -4.714392962        9.056376415  5.806197e-03 -6.013512e-03  5.404199e-03
        32      pv       -8.871469384        -4.44766835        10.68657979 -1.463474e-02  1.396446e-02  2.582195e-02
        33      pv        -8.07852014       -4.398781923        9.006153917 -2.788567e-02  4.544100e-03  1.547673e-02
        34      pv       -8.583342726       -5.949677252         9.83331137 -3.513521e-03 -2.138143e-02 -7.769642e-03
        35      pv       -10.50844365        -5.69131952        9.020214931 -8.589614e-03 -6.125754e-03 -1.597596e-03
        36      pv       0.3722899612       -4.916351716       -3.972473047 -5.578051e-03 -2.326163e-04  5.148976e-03
        37      pv      -0.2299877636       -4.281381548       -2.841055167 -2.449698e-04 -9.306465e-03  6.784983e-03
        38      pv      -0.2890682152       -4.819626761       -4.788527706  3.652728e-03  1.740231e-02  3.345917e-03
        39      pv       0.2890844573       -5.903411018       -3.766966305  1.647897e-02  1.577210e-02  6.803633e-03
        40      pv        1.384072698       -4.584493787       -4.141717333 -3.131338e-02 -3.284251e-03 -1.265813e-03
        41      pv       -1.190218174       -4.488831728       -2.982716292 -3.878248e-02  1.844028e-02 -1.216184e-02
        42      pv       -1.145332124        7.263136864        3.255065958 -1.806161e-03  5.676513e-03 -2.734355e-03
        43      pv       -2.037181457        8.182894269         3.89392043  4.140660e-03  6.214731e-03 -5.315843e-03
        44      pv       -1.754190107        6.764525078        2.471140511  1.795999e-02  2.532890e-02  9.608687e-04
        45      pv      -0.6738694626        6.536945382         3.97484239 -1.925398e-03 -2.225860e-03  4.511433e-03
        46      pv      -0.3220126905        7.812294544         2.76999177 -3.713995e-03  2.951694e-03  3.446792e-03
        47      pv       -2.193865814         8.91977895         3.32935678  2.927189e-02  8.248130e-03 -7.327888e-03
        48      pv       -11.00059978       -10.15016733        5.659543951  8.447199e-04 -5.932393e-03 -3.522379e-03
        49      pv        -12.0605276       -9.384024073        6.159963719 -1.919812e-03  1.765373e-03  8.108219e-04
        50      pv       -10.56329582       -10.92817548        6.375924731  1.598176e-02 -5.931845e-03  2.519073e-02
        51      pv       -10.20701215       -9.489661808        5.436634099  1.499403e-02 -4.246623e-03  1.193668e-02
        52      pv       -11.27785896       -10.58921331        4.633334575  5.580492e-03 -1.151476e-02 -6.861240e-03
        53      pv       -11.91701017       -8.453203422        5.961131761 -6.653020e-03 -3.250835e-02  2.699054e-02
        54      pv       -5.020787229        5.175621273        3.320358995  4.869441e-03  1.772374e-03 -1.777829e-03
        55      pv       -5.658228917        4.605827935        4.468365883  2.096776e-03 -1.698511e-03 -3.597026e-03
        56      pv       -4.941337855        4.432970542        2.448423752 -1.353492e-03  1.839872e-02 -2.731606e-02
        57      pv       -4.112397084        5.612590586        3.601468246 -1.083487e-03  3.326436e-03 -1.089680e-02
        58      pv       -5.656241259        5.943005772        2.976928399 -1.765505e-03  7.179929e-03  5.475717e-03
        59      pv       -5.001682804        3.936021275        4.708002658 -1.564215e-02 -1.915339e-02  4.881126e-04
        60      pv       -5.595963919        1.446948465         13.9364987  4.234167e-03 -1.162982e-03  1.012300e-03
        61      pv       -4.332244688        1.934683739        14.28097977 -1.226980e-03 -3.560209e-03 -1.896797e-04
        62      pv       -6.289719753        2.036066366        14.56282253 -3.021834e-02  2.682113e-02 -1.268052e-02
        63      pv       -5.672728819       0.3644997352        14.18833259  3.086860e-02  1.133515e-02  2.496640e-02
        64      pv       -5.755037072        1.590161712        12.89059381 -3.172753e-03 -2.329811e-02  1.440416e-02
        65      pv       -4.472612878        2.872421906        14.44213107 -7.807678e-03 -9.327496e-03  1.397828e-02
        66      pv       -5.309937802        -7.48470036        16.98792829 -2.402316e-03 -6.926748e-04  3.450293e-03
        67      pv       -4.310753242       -8.215012902        17.79080331 -4.170197e-03 -1.099607e-03 -6.233231e-03
        68      pv       -6.169152644       -7.355204884        17.72293975 -2.300340e-03 -1.729207e-03  1.682899e-02
        69      pv       -5.508948524       -8.229508772        16.15755602 -2.427405e-02 -3.646419e-04 -2.283668e-02
        70      pv       -5.003484051        -6.54425296        16.59357425  1.550328e-02  1.873919e-02  7.093035e-03
        71      pv       -3.400024417       -8.050174761        17.43815646  9.863888e-03 -3.561642e-03  1.245156e-03
        72      pv       -3.293517255        3.583730677       -7.258423264  3.899065e-03  3.164685e-03  2.604039e-03
        73      pv       -4.215042326        4.413773191       -6.461865159 -1.680935e-03 -5.452278e-03  2.926569e-03
        74      pv       -2.658986654        4.344856769        -7.85791807  1.203808e-02  1.034942e-02 -9.637258e-05
        75      pv       -3.978620334        2.984955822       -7.936419494  1.645076e-02  8.399719e-03 -8.511232e-03
        76      pv       -2.788815624        2.917167338       -6.576275155 -2.591509e-02 -2.034363e-03 -2.083746e-03
        77      pv       -4.100541742        5.290937028        -6.80547022 -1.013667e-02 -7.363081e-05 -2.426684e-03
        78      pv       -3.209839311       0.1871246662       -2.876667619 -8.550464e-04 -6.566400e-04 -7.547352e-03
        79      pv       -2.810198039      -0.7860521896       -1.992647637 -4.210698e-03  6.205408e-03  4.405261e-03
        80      pv       -3.683667022       0.9387748297       -2.271290282  8.167288e-03  1.046388e-03  5.315269e-03
        81      pv       -3.724633959      -0.1415762058        -3.83002937 -1.030897e-03  5.665149e-03  1.362292e-02
        82      pv       -2.297384259       0.6055158307        -3.24724667  8.396073e-03  9.577105e-03  8.794428e-03
        83      pv       -2.224967692      -0.2620920938       -1.373371162  3.331382e-02  1.220100e-02 -1.063058e-02
        84      pv        2.527224735        5.441509077        2.865301106  4.630706e-03 -1.680864e-02 -3.143595e-03
        85      pv        3.908160303        5.127177939        2.837144751  3.989827e-03  3.907208e-04  5.231346e-03
        86      pv        2.124206723        4.946377826        1.992969204 -1.511404e-02  2.855567e-02  7.994446e-03
        87      pv        2.428402176        6.540295355        2.747790594 -2.145170e-02  1.094321e-03  3.204882e-03
        88      pv        2.071616909        5.259802318        3.844571547 -1.471773e-02  1.581798e-02  1.895571e-02
        89      pv        4.365528965        5.768578621        2.246358868  7.850239e-03 -1.101550e-02  4.125655e-03
        90      pv       -1.142409991       -2.062924426        8.801702185  2.602663e-03 -2.620952e-03  1.280003e-03
        91      pv       -2.352540669       -2.789659596        8.861432135  1.044569e-03  1.616343e-03  3.322263e-03
        92      pv      -0.6650872109       -2.032177343        9.757922708  3.297069e-02  1.530661e-02 -9.831957e-03
        93      pv       -1.487743005       -1.069210718        8.495163986 -4.469931e-03 -6.749832e-03  4.243217e-02
        94      pv      -0.4326727532       -2.381755505        7.999707636  2.087842e-02 -1.139488e-02  9.727136e-03
        95      pv       -3.012955957       -2.376170997        9.468839433 -3.959353e-02 -1.634389e-03  1.034562e-02
        96      pv     -0.08141509215        2.197190912        8.218705016  6.097311e-03  3.198301e-04  2.881850e-03
        97      pv     -0.07468417801        2.001101093        6.757581306 -1.538994e-03  3.109757e-03 -6.000575e-03
        98      pv       0.2822433277        1.284231384        8.694284973  1.041900e-02 -6.391516e-03  9.274091e-03
        99      pv       -1.100797504        2.253374825        8.631647072  4.977128e-03 -2.615719e-02  1.682454e-03
       100      pv       0.4084246682        3.170469881        8.535202863  4.166913e-03  1.377756e-02  1.269855e-02
       101      pv        0.403807727        1.161578282        6.657266169 -8.706407e-03  1.265016e-05  9.634998e-03
       102      pv       -12.75382101        6.367119729        1.526118671 -5.872287e-03 -1.337011e-03 -2.516142e-03
       103      pv       -14.07533249        6.810044856        1.070157268 -1.232456e-03 -4.472512e-04 -7.138569e-03
       104      pv       -12.21878438        7.227554335        2.070658323  1.052348e-02 -1.132632e-02  5.281963e-03
       105      pv       -12.15807585        6.194113368       0.6572587686  1.689892e-02  3.219403e-03 -2.592488e-02
       106      pv       -12.69784141        5.484815062        2.123307742 -3.951110e-03  2.570576e-02 -2.593447e-02
       107      pv       -13.95409688        7.775501768        0.880920671 -1.956758e-02  1.917943e-02 -6.853210e-04
       108      pv       -4.322686442        15.99123272       -0.629916944 -3.091324e-03 -2.683207e-03 -3.308057e-03
       109      pv       -5.092201689        17.01303242       -1.154167555 -1.328165e-03 -3.354115e-03 -1.162239e-03
       110      pv       -4.761957585        14.97939469      -0.7692134082 -1.645284e-02  3.292716e-02 -1.252610e-03
       111      pv       -4.224876235        16.15975305       0.5137147977  6.041847e-03 -5.673449e-03  7.909574e-04
       112      pv       -3.403665491        15.83130085       -1.121107832 -1.970901e-03  5.110945e-03  5.066945e-03
       113      pv        -4.46858744        17.59040719       -1.707003758 -1.221062e-02 -3.572253e-02  2.501491e-02
       114      pv       -7.591753252        3.991731674        7.743505426 -8.266170e-04  3.902386e-03  3.169657e-03
       115      pv       -8.913974338        4.463542977        7.961362798  2.959428e-04  5.896012e-03  4.200028e-03
       116      pv       -7.301584149        4.146023882        6.770963728 -2.570891e-03 -2.704358e-02  9.018752e-03
       117      pv       -7.494352869        2.967262319        7.882628547  5.862715e-03 -1.081323e-02 -1.793377e-02
       118      pv       -6.960773523        4.437293207        8.497874609  2.927172e-04 -1.131029e-02  3.168564e-03
       119      pv       -8.996777776         4.41831414        9.035968261  4.008568e-03  2.117109e-02  2.216328e-02
       120      pv       -7.913302183        -1.35991277        10.90223417  4.607207e-03 -1.061028e-04  1.763734e-03
       121      pv       -6.976489314       -2.355974867        11.03068832  1.835258e-03  1.943958e-03  3.883699e-04
       122      pv       -7.518123986      -0.4265721442        10.47562131  2.171222e-02 -1.948975e-02 -1.594181e-02
       123      pv       -8.522367289       -1.191492826        11.77696688  2.740818e-02 -8.498616e-03 -2.474560e-02
       124      pv       -8.674564331       -1.863514634        10.29044349  2.289031e-02  3.184188e-02 -2.062179e-03
       125      pv       -7.201378287       -2.927457569        11.74057021 -8.261874e-03  2.340096e-02  2.265626e-02
       126      pv         2.07361897        1.547084884        11.34195652 -2.824737e-03 -9.163808e-04  5.967924e-04
       127      pv        2.687363428        1.317746324        12.57046718 -5.189696e-03  1.250375e-03 -3.089620e-03
       128      pv         2.28346522        2.544882621        10.92571428  1.239256e-02  1.355000e-02  2.433274e-02
       129      pv        1.018459154        1.391735632        11.52823819 -2.931171e-02  2.467863e-02 -1.070209e-02
       130      pv        2.513940072        0.758909431        10.69408501 -7.163916e-03  3.071610e-04 -1.191404e-02
       131      pv        2.024254227        1.238473913        13.27407609  1.491794e-02 -1.357733e-02  5.229981e-02
       132      pv       -6.605225868        7.485797568        5.826845589 -3.634646e-04  1.996367e-03 -5.768790e-03
       133      pv       -7.348161568        6.671468574        4.891838442 -4.937229e-04 -2.408200e-03 -5.175516e-03
       134      pv       -6.477105742        6.968636083        6.895849822  1.968638e-02 -1.443587e-03  1.862233e-03
       135      pv        -7.01079716        8.519847622        5.851049935 -9.438440e-03  3.337023e-02 -1.522521e-03
       136      pv       -5.536911133        7.303856172        5.406649407  4.587224e-03 -1.466149e-03  4.232311e-03
       137      pv       -6.923163131         5.75956949        4.845611972 -7.788555e-03  3.047017e-02  7.880168e-03
       138      pv        5.989705465       -4.252827757        19.80153491  6.391526e-03  1.382342e-03  1.072713e-03
       139      pv        5.978836497         -4.0496142        18.32253443 -3.398314e-03 -5.567763e-03  3.874365e-03
       140      pv         5.66625468        -3.29525033        20.21880362 -2.153169e-02  2.900124e-04 -8.264506e-03
       141      pv        7.049343403       -4.255564916        20.10668319 -8.759666e-03  1.507306e-02 -1.167514e-02
       142      pv        5.480736194       -5.126384475        20.21250169  2.121153e-02 -1.111226e-02 -4.131343e-03
       143      pv          5.4575261       -3.278602295        18.06166852  8.149107e-03 -1.116745e-02 -5.153820e-03
       144      pv       -3.537951247        10.02099691          1.2162074 -2.185185e-03 -6.803381e-03 -8.422104e-03
       145      pv       -2.767822146        10.13398564        2.335536593 -1.413091e-04 -5.134650e-03 -5.308982e-04
       146      pv       -4.006495139        10.99466015        1.303009588 -1.815291e-02 -2.408007e-02  1.870499e-03
       147      pv       -4.228652752        9.181888537         1.52541711 -1.727559e-02  9.571496e-03 -1.061541e-02
       148      pv        -2.95326618        9.811318919        0.303871408 -1.583465e-02  9.035145e-03 -9.735343e-03
       149      pv       -2.470586531        11.07208991        2.425105798 -1.447560e-03 -4.376719e-03 -3.189558e-02
       150      pv       -1.532358808        12.98263525      -0.8608331518 -4.572826e-03 -8.839494e-03 -4.986316e-03
       151      pv       -1.722327009        12.15815494       -1.967458074  2.873464e-03  5.027041e-03  7.745419e-03
       152      pv      -0.6227612442        12.75385832      -0.2768873717 -1.915372e-02  1.672013e-02 -3.337333e-02
       153      pv       -2.434329601        12.87906399      -0.2463967867  2.998086e-02  3.891256e-02  1.180327e-02
       154      pv       -1.523378552        14.05822338       -1.234520147  8.808713e-03 -1.097062e-02 -1.657033e-02
       155      pv      -0.8246864808        11.86542271       -2.276053772  2.013383e-02 -1.187319e-02  2.251155e-02
       156      pv        6.891817973        16.01903399       -8.230261363 -5.766385e-03  4.574523e-03  1.622940e-03
       157      pv        6.805499372        15.86318293       -9.564237076  1.503378e-03 -4.596089e-03  4.555124e-03
       158      pv        6.760790144        14.96168519       -7.713361267  3.943902e-03  3.895770e-02  2.390701e-03
       159      pv        6.201670851        16.79579522       -7.791324938  1.452274e-02 -2.046769e-02 -2.248571e-03
       160      pv         7.85716878        16.38885126       -8.069233186 -7.354690e-03  2.372656e-02  1.380133e-02
       161      pv        7.693761942        15.42974903       -9.682930318  1.065243e-02 -3.153665e-02 -2.810234e-02
       162      pv       -5.170877788        11.65349888        4.220839527  4.615471e-04 -5.808807e-03 -1.974847e-03
       163      pv       -5.933570811         12.5951529        4.830144068 -2.296344e-03  4.143924e-03  1.381940e-03
       164      pv       -5.468352077        11.75483322        3.156390657  6.928687e-03  8.961117e-03 -1.222381e-02
       165      pv       -5.365364422        10.68148107        4.692538166 -1.439225e-02 -9.561786e-03 -1.348203e-02
       166      pv       -4.117461845        11.95981674        4.472038559  1.926190e-02  1.824663e-02  1.960426e-02
       167      pv       -5.678346941         13.4248849         4.39771717 -3.435578e-02 -5.808963e-03 -3.752387e-03
       168      pv       -4.646513983        14.21590246        10.37680004  9.082869e-04 -9.625966e-04  1.287298e-04
       169      pv       -3.531464941        13.52855717        10.70805801 -8.523932e-04 -3.358937e-03 -4.714017e-03
       170      pv       -4.412000304        14.80284998        9.503147832  7.627107e-04 -2.009435e-02 -1.075680e-02
       171      pv       -4.969706634        14.75529301          11.268569  3.137576e-03 -1.404732e-02  1.587884e-02
       172      pv       -5.471853516        13.54255752        10.07721118  3.576371e-03 -1.958174e-02  1.210606e-02
       173      pv       -3.431387138        12.96543895        9.915252596 -7.821089e-03  9.486139e-03  1.600619e-02
       174      pv      0.09506006206        18.80308075        4.474076278  4.890177e-03 -8.852065e-04 -3.327312e-03
       175      pv       0.6436493865         18.7602198        5.826111586 -3.880894e-04 -1.103257e-03 -1.324611e-04
       176      pv      -0.4690981926        19.69573268        4.219267846  3.662000e-03 -3.618443e-02 -3.873694e-03
       177      pv      -0.6621961918        18.03200856        4.481196156  1.923951e-03 -3.407209e-03 -4.034377e-05
       178      pv       0.8235138889        18.64543446        3.692238797 -2.231443e-02  3.800107e-04  6.411883e-04
       179      pv        1.058654705        17.89885776        5.976133866 -1.698204e-02 -5.484262e-03 -4.962070e-03
       180      pv        3.766239235        9.345509685        3.679800424 -6.100417e-03 -2.394689e-03 -3.429139e-03
       181      pv        4.935098407        8.543947325        4.154188747  4.260994e-03 -1.439638e-03  6.070495e-03
       182      pv        2.954573624        9.213726555        4.392403132  3.295410e-02  1.691600e-02 -2.272288e-03
       183      pv        3.459458654        9.143080325        2.692361972 -6.805396e-03  5.539104e-03 -2.731865e-03
       184      pv        3.976426874        10.41547633        3.658182066 -9.952346e-03 -2.850174e-03 -2.806535e-02
       185      pv        5.438522126        9.199207148        4.655000251 -5.005834e-03  1.807349e-02  1.327727e-02
       186      pv        1.717349804        13.76890229        3.889739489  9.057549e-04  3.247290e-03  3.705385e-03
       187      pv       0.7444252928        12.67738081        4.023644058 -1.088255e-03 -2.600629e-03  2.829557e-03
       188      pv        1.568584115        14.24039852        3.028273624  3.040013e-02  5.777603e-03 -1.458799e-02
       189      pv        2.681585357        13.23322418        3.925048975  1.635080e-02 -1.777015e-02 -3.052100e-02
       190      pv         1.61856562        14.47578301        4.630861756 -1.095593e-02  1.007568e-04 -1.160278e-02
       191      pv        1.079634226        11.91792326        4.521266574 -2.480490e-02 -1.945798e-02 -9.643124e-04
       192      pv       -7.910178445        13.92587543        2.241648916 -3.484982e-03 -6.905375e-03 -3.414991e-04
       193      pv       -8.456078838        14.43212212        3.432834081 -5.739266e-03  4.277294e-04 -4.412815e-05
       194      pv       -7.844790918        14.65356845        1.508271338  1.370634e-02  1.947611e-02  3.453750e-02
       195      pv       -8.455818009         13.0408657        1.956792558  2.464141e-02 -4.320408e-03  2.834278e-02
       196      pv       -6.923895255        13.42104018        2.433064352 -1.309296e-02 -9.536750e-05  8.308581e-03
       197      pv       -7.764295994        14.96678238         3.86525736  1.708317e-02  3.786431e-02 -1.232095e-02
       198      pv       -8.675907388        12.63408744        6.382212722 -4.608470e-03  3.071108e-03  3.579720e-04
       199      pv       -7.522641877         12.1812083        7.045032054  1.518495e-03 -1.171589e-03  6.588965e-04
       200      pv       -9.517588924        12.37007979        7.023457511 -1.093034e-02 -2.478669e-02 -1.565432e-02
       201      pv       -8.777100561        12.20628195        5.365817116  2.556640e-02 -3.016390e-02 -1.978056e-02
       202      pv       -8.647178269         13.7241695        6.211369948  2.573520e-03 -3.966584e-02 -9.464869e-03
       203      pv       -6.746962629        12.57992471        6.574776002 -7.145556e-03 -1.351357e-02  2.146842e-03
       204      pv        5.806202634        20.06828424        11.42759243 -1.112019e-04 -2.006522e-03 -4.167193e-03
       205      pv         4.77144596        19.20957135        12.00896413  1.584593e-03  2.869285e-03 -5.921835e-03
       206      pv        5.490761776        20.45631849        10.52776834 -2.752545e-04 -8.705678e-03  2.060830e-02
       207      pv        6.742735156        19.38044038        11.20744492 -1.250280e-02  3.158300e-02  1.833362e-02
       208      pv        6.079214708        20.93508423        12.06769952 -1.278425e-02  2.636156e-03  9.535902e-03
       209      pv        4.132023008        19.89728624        12.44694801 -9.397592e-04 -3.946675e-03  1.035509e-02
       210      pv      -0.7621515954        15.00886886        11.41025828  6.316914e-03  5.799469e-03 -7.074739e-03
       211      pv       -1.079433129         13.9709404        12.29892425 -2.857535e-03  3.680658e-03 -2.119508e-03
       212      pv       -1.677367411        15.51779874        11.20570388  1.435274e-02 -1.670015e-02  1.223248e-03
       213      pv      -0.3733541188        14.58014423        10.50227947 -6.532754e-03  4.283791e-03  4.446468e-02
       214      pv     0.007219395266        15.65126054        11.87347168  1.119098e-02  6.247411e-03  1.241079e-02
       215      pv       -1.886887705         13.5088297        11.98876342 -1.206560e-02  8.912661e-05  5.707764e-03
       216      pv        4.663526443       -6.331652033       -8.726311764  2.224081e-03 -4.852502e-03  1.669130e-03
       217      pv         3.59247714       -6.219812646       -9.601097909  3.268876e-03 -7.579594e-03 -1.648441e-03
       218      pv        5.318983359        -6.94296278       -9.295537143 -1.466167e-02 -1.001758e-02 -1.226317e-02
       219      pv        4.331510652       -6.885472016       -7.803236322  2.419133e-02  1.480659e-02 -7.035661e-03
       220      pv        5.119076854       -5.364401884       -8.438069155  4.389522e-02  5.818916e-03 -4.036909e-02
       221      pv        3.255226212       -5.340785183       -9.503241002  1.232692e-02 -2.139504e-02  1.940072e-02
       222      pv        5.583122759        2.066474805        4.029766664 -3.013457e-03 -2.660803e-03 -4.752914e-03
       223      pv        4.341839051        2.349038462        3.169196985 -9.315039e-04  3.227898e-05  1.350053e-02
       224      pv        6.457325497        2.344110155        3.554017421  1.659050e-02 -1.336724e-02 -3.006340e-03
       225      pv        5.494640604        1.013707199        4.333439483  4.814302e-03 -7.067231e-03  1.898529e-02
       226      pv        5.551528587        2.707570969        4.959306842 -7.002452e-03 -2.698014e-02  2.071786e-02
       227      pv        4.275729393        3.360466026        3.133281465  8.700535e-03  3.118190e-03  8.875864e-03
       228      pv        3.784037019      -0.6155216388        2.010837276 -3.071745e-03  3.330261e-03  2.373523e-03
       229      pv        2.955881242       0.5290328152        1.832589362 -1.995211e-03 -3.067950e-03 -2.837730e-03
       230      pv        3.934682382         -1.1799001        1.025163673 -2.813171e-02 -7.646255e-03 -2.297577e-03
       231      pv        3.300515831       -1.334991567        2.758003374  9.922368e-03 -4.325059e-03  5.154819e-03
       232      pv        4.716907486      -0.2890739043        2.379017318 -3.118268e-04 -6.094922e-03  2.925854e-04
       233      pv        3.234173765        1.231890996        2.439044176 -2.464161e-02 -1.420749e-02  2.668570e-03
       234      pv        11.10619037       -3.304599446       -3.649209227  3.081474e-03 -6.984214e-03  5.035493e-03
       235      pv        10.40992523       -4.085346633       -4.449734724  4.983171e-03  2.009795e-03  1.226194e-03
       236      pv        10.64550927       -3.156016169        -2.66762137 -1.115122e-02 -2.385692e-02  2.620251e-02
       237      pv        11.23011461       -2.351299672       -4.155150522 -2.024901e-02 -1.056167e-03  1.045768e-02
       238      pv        12.09849755       -3.666015532       -3.546922839  5.899557e-03 -2.705724e-04  5.309619e-03
       239      pv        9.578777406       -3.647956657       -4.622570384  1.215060e-02  2.954291e-02  5.383986e-03
       240      pv        3.947785735        1.205379907        7.290616234  1.399220e-03 -4.877112e-03 -8.303884e-04
       241      pv        3.702575605      -0.1624178242        7.106136071 -1.184444e-03 -5.532829e-03  1.036966e-02
       242      pv        3.101564184        1.835298787        7.062620585 -1.745772e-02  9.209894e-03  1.912083e-02