<OpenMD version=2>
  <MetaData>

molecule {
  name = "methanol";
  atom[0] { type = "CT"; position( -5.96684, 1.08283, -0.00928);}
  atom[1] { type = "OH"; position( -4.93201, 2.04823, 0.02864);}
  atom[2] { type = "H1"; position( -5.60539, 0.17925, -0.5063);}
  atom[3] { type = "H1"; position( -6.826, 1.48931, -0.54848);}
  atom[4] { type = "H1"; position( -6.26343, 0.83944, 1.01366);}
  atom[5] { type = "HO"; position( -4.68999, 2.24405, -0.89252);}

  bond { members(1, 5); }
  bond { members(0, 3); }
  bond { members(0, 2); }
  bond { members(0, 1); }
  bond { members(0, 4); }

}


component{
  type = methanol;
		nMol = 108;
}

forceField = "Amber";
ensemble = NVE;
electrostaticSummationMethod = "shifted_force";
electrostaticScreeningMethod = "damped";
cutoffRadius = 9;
dampingAlpha = 0.2;
targetTemp = 300;
tauThermostat = 100;
dt = 1.0;
runTime = 2.5e4;
tempSet = "false";
sampleTime = 1000;
statusTime = 10;

## Last run using OpenMD Version: 2.3 Revision: 2055
  </MetaData>
  <Snapshot>
    <FrameData>
        Time: 0
        Hmat: {{ 19.36269638, 0, 0 }, { 0, 19.36269638, 0 }, { 0, 0, 19.36269638 }}
  Thermostat: -0.0001642766318 , 0.1921611472
    Barostat: {{ 0, 0, 0 }, { 0, 0, 0 }, { 0, 0, 0 }}
    </FrameData>
    <StuntDoubles>
         0      pv       -3.322721259       -6.577534245       -14.37342273  2.893689e-03  1.549857e-03 -6.583914e-03
         1      pv       -2.262054316       -7.120725222       -15.32482344  7.022066e-03  7.886442e-04 -1.402552e-03
         2      pv       -3.956173412       -7.353909658       -14.13518158 -1.072154e-03  4.646796e-03 -7.303767e-03
         3      pv       -3.865280771       -5.807760595       -14.88216129  1.670966e-03  4.525102e-03 -5.333934e-03
         4      pv       -2.876434721       -6.137830616       -13.44395269 -1.586898e-02  1.341560e-03  2.319967e-02
         5      pv       -1.543089409       -7.475797503       -14.70338204  3.035636e-02 -2.299631e-02  7.192875e-03
         6      pv         2.42788528        -8.91034759       -5.291875155  2.815703e-04  7.720093e-03 -3.903522e-04
         7      pv        2.515537798       -10.16887028       -4.622972167 -2.796137e-03  5.532255e-03 -1.865636e-03
         8      pv        1.873479852       -8.966453211       -6.215134023 -7.094260e-03  1.472216e-02 -2.992102e-03
         9      pv        3.382963635       -8.459312331       -5.325819708 -1.480569e-02 -2.524546e-02  8.777654e-03
        10      pv        1.871521002       -8.293629305       -4.629822089 -8.445818e-03  1.224604e-02  2.589263e-03
        11      pv        1.503798284       -10.34022368       -4.409846774 -2.254446e-02  1.705866e-03  2.089329e-02
        12      pv      -0.3707721509       -5.325365153       -7.632945625  6.356245e-03 -6.544559e-04 -8.766789e-04
        13      pv       -0.240438218       -4.114867773       -8.261578908  2.961846e-03 -6.316195e-04 -1.686988e-03
        14      pv       0.6470055252        -5.85794989       -7.517319059  4.889314e-03  1.473319e-02 -1.851281e-02
        15      pv       -1.141754009       -5.888764872       -8.298225159 -3.189628e-02  1.198232e-02 -6.987412e-03
        16      pv      -0.7735522514        -5.15791521       -6.679187639 -1.528290e-03  4.387964e-03  7.493980e-04
        17      pv        0.634873559       -4.095346773       -8.640040669  8.711968e-03  3.216832e-03 -5.043114e-03
        18      pv        1.329775177       -4.236752968       -4.802425998  4.601019e-03 -1.054730e-03  3.634356e-03
        19      pv        2.308949883       -5.243974642       -4.599411795 -3.099797e-03  9.891689e-05  3.753565e-03
        20      pv        1.587198913       -3.385492491       -4.296164639 -4.115022e-03  2.069789e-02  2.188458e-02
        21      pv       0.3894026453       -4.527635536       -4.375171771  1.781617e-02 -2.046605e-02  4.939170e-03
        22      pv        1.151425654       -4.163079619       -5.876396478  7.986994e-03 -5.836107e-03 -6.862120e-03
        23      pv        2.092037519       -5.534953201       -3.655886443 -1.709279e-04  1.563115e-02 -3.484252e-02
        24      pv       -3.765503579       -6.740602021       -7.373159531  8.865435e-04 -4.417071e-03  4.231092e-04
        25      pv       -4.797885747       -6.067012263       -6.532771429  7.514217e-03 -2.079693e-03 -1.848989e-03
        26      pv       -3.026169461       -6.005980881       -7.759318804 -2.458030e-02  7.283126e-04 -7.091843e-03
        27      pv       -4.188194103       -7.216581566       -8.187236128  3.676926e-02  2.171313e-02 -5.286432e-03
        28      pv       -3.199025792        -7.44236736       -6.749217782  1.845200e-02  2.986242e-02  2.291256e-02
        29      pv       -5.511289624       -6.631465846       -6.505122269 -1.256832e-03  7.267770e-03  1.435721e-02
        30      pv       -11.58831521       -5.397492945        13.53323781 -8.926844e-03  4.436277e-03 -1.022699e-02
        31      pv       -11.13734577       -6.649951878        13.79245114 -5.510142e-03  1.175742e-03  5.407830e-03
        32      pv       -12.37244268       -5.388573492        12.78589653 -2.264971e-02 -5.954221e-03  4.823628e-03
        33      pv       -10.74857076       -4.788051057        13.21509741  1.114096e-03  4.558726e-03  1.497154e-03
        34      pv       -11.94651674       -5.030715509         14.4721868  6.751855e-03 -2.053342e-03  1.001962e-02
        35      pv       -11.86777504       -7.208642295        13.85219417 -4.163836e-03  4.868523e-04 -1.036652e-03
        36      pv       -3.728832442       -5.722663131        1.233319726  4.497412e-03 -3.600849e-05 -1.315541e-03
        37      pv       -3.587175083       -6.424553118      0.04737533107  5.231917e-03  3.234289e-03  5.236519e-03
        38      pv       -4.443548659       -6.113830553        1.912283721 -1.274749e-02  8.306823e-03  1.160849e-02
        39      pv       -4.020959224       -4.637108949        1.090545005  1.918380e-02  1.654827e-02 -5.994095e-03
        40      pv       -2.831490221       -5.620018887        1.864053801 -2.403915e-02  7.899875e-03  1.153786e-02
        41      pv       -2.832450009       -5.867527361       -0.401043051  2.098860e-02  9.498459e-03  9.914466e-03
        42      pv      -0.6699355295        5.598507468        6.767379716  1.969435e-03 -4.696336e-03 -2.956447e-04
        43      pv       0.3436937994        4.725717706        7.029866433  8.258063e-03  2.246041e-04 -1.783091e-03
        44      pv       -1.073929737         5.65717419          5.7316289  3.265439e-04  9.025106e-03  1.317453e-02
        45      pv       -0.417314973        6.629216126         7.13584568 -1.106994e-02 -3.538826e-02 -2.151764e-02
        46      pv       -1.422307962        5.267634982        7.473105415  8.809909e-05  2.575799e-02  3.804468e-03
        47      pv        1.071411779        5.219128535        7.527789596  2.555368e-03 -4.606100e-04 -9.411921e-03
        48      pv       -12.64193808       -6.564901362        6.338834369  2.670361e-03 -8.820061e-03 -1.319528e-03
        49      pv       -12.04143895       -5.367188479        6.625173469 -1.856687e-03  5.273041e-03  4.682462e-04
        50      pv       -13.34389091       -6.930239072        7.118613875 -3.247737e-02  7.867194e-03  2.115524e-02
        51      pv       -11.84641754       -7.372267142        6.171753272  2.127950e-03  4.415242e-02 -9.447621e-03
        52      pv       -13.14302176       -6.495525548        5.372503455  8.280826e-03 -1.607842e-02 -1.238262e-02
        53      pv       -11.02023928       -5.504280928        6.709648444 -1.150720e-03 -1.232883e-02 -8.843966e-04
        54      pv       -2.726672064        1.990797516        8.639766103  6.093588e-03 -7.777014e-03 -4.078260e-03
        55      pv       -3.199444013        1.856725078        7.353814059  1.987352e-03 -4.352489e-03  1.734925e-03
        56      pv       -1.840893105        1.377625519        8.715044885  1.414774e-02 -1.236102e-02  8.909982e-03
        57      pv       -3.447922164        1.550339737        9.297771058  5.214731e-03  2.113107e-02 -1.302755e-02
        58      pv       -2.493913097        3.001239482        8.953339914 -1.554908e-02 -1.862659e-02  1.062682e-02
        59      pv       -3.498486217       0.9176793827        7.385038172  4.230588e-02  1.604421e-02 -9.389105e-03
        60      pv       -4.880798883        3.157949106        14.33840646  1.307848e-03  7.233496e-04 -3.194499e-03
        61      pv       -3.684614202        4.003065816        14.33488452 -2.422000e-03  6.953404e-03 -1.544279e-03
        62      pv        -5.71129067         3.70077832        13.86701402 -2.300078e-02 -8.808671e-03 -1.392738e-02
        63      pv        -5.15510425        2.820388405        15.28934117  1.544039e-02  4.908770e-03 -2.486794e-03
        64      pv       -4.650292275        2.282186105        13.74781356  7.452055e-03  1.811908e-02  3.061438e-03
        65      pv       -3.048923395        3.530435352        13.62741219  9.568031e-03  8.630286e-03 -1.344920e-02
        66      pv       -3.576301688       -5.323283576        8.432406312  2.001636e-03  4.164098e-04 -1.596951e-03
        67      pv       -3.197327659       -6.685913795        8.715188317 -9.873204e-04  6.180434e-05  1.833456e-03
        68      pv        -4.60799189       -5.421608509        8.004016416  1.562063e-02 -1.711481e-02  2.934717e-02
        69      pv       -2.882491099        -4.83539294        7.749011923 -1.396092e-02  9.212900e-03  2.727728e-03
        70      pv       -3.626301955       -4.814475123        9.437271773 -1.762083e-02 -9.722649e-03 -2.383859e-02
        71      pv       -3.947846281        -7.35553791        8.656950176 -4.805847e-03  2.460118e-02  1.126202e-02
        72      pv       -1.497839808        3.204052929       -2.675351781  1.501019e-03  1.350077e-03 -5.328421e-03
        73      pv       -0.765876404        4.014979688       -3.613831135 -2.268256e-04 -6.540332e-03 -1.431116e-03
        74      pv       -1.335948682        3.542251542       -1.587212285 -5.234682e-03  2.933483e-02 -1.690352e-02
        75      pv       -1.257245161        2.241369246       -2.683845368  8.362052e-03 -7.787460e-03  8.821073e-03
        76      pv       -2.568412576         3.29625109        -2.84137695  1.760166e-03 -1.180548e-02 -3.891491e-02
        77      pv       -1.390442859        4.702261684       -3.844765432  5.411244e-03  2.666796e-02 -2.044132e-02
        78      pv      -0.4191673887        1.248816155      -0.2190590717  7.798073e-03  1.363872e-03 -1.515021e-02
        79      pv       -1.780981353        1.060834437      -0.3502188807 -4.752827e-03 -7.673566e-03 -2.416189e-03
        80      pv      -0.0781117361       0.3007461242        0.178021457 -1.031562e-02 -1.810892e-02 -1.350794e-02
        81      pv      -0.2299805965        2.044865332       0.4930008438  1.760618e-02  1.498489e-04  7.021313e-03
        82      pv      0.03844160653        1.489249972       -1.211245674  3.721159e-02  1.023512e-02 -1.487156e-02
        83      pv       -2.052280773       0.1347997557     0.004202098891  1.416215e-03  1.099110e-02 -7.022005e-03
        84      pv     -0.07063895673        7.358512553       -3.769363056 -4.172920e-03  1.086276e-02 -1.730267e-03
        85      pv     -0.09156781601         8.64754605        -4.26758297  8.962889e-04  2.794508e-03 -5.024531e-03
        86      pv        -1.02158673         6.79410008       -3.846168593 -1.756485e-02  1.762794e-02 -1.427534e-02
        87      pv       0.2107862123        7.358436138       -2.735314403 -1.690639e-02  6.086756e-03  1.005178e-02
        88      pv       0.7266862064         6.76456922       -4.336834085  1.130906e-02 -8.667731e-03  5.242645e-03
        89      pv      -0.8700036149        8.605732202       -4.916579536 -1.260705e-02  1.879394e-02  2.895174e-02
        90      pv       -5.391818822       -1.708784529       -1.297567439 -6.494204e-03 -8.913536e-04 -4.221418e-03
        91      pv       -5.844338553       -2.275020202     -0.03991898086 -2.397678e-03 -5.205319e-03  2.304890e-03
        92      pv       -4.516346194       -2.352563325       -1.663362133  1.544808e-02  8.265350e-03 -9.964351e-04
        93      pv       -4.978907866      -0.7617027648      -0.9812544947 -1.498686e-02 -1.072139e-02 -1.225930e-04
        94      pv       -6.201754946        -1.62518567       -2.030692214 -5.233037e-03  1.011731e-02  1.009611e-02
        95      pv       -6.267668165       -3.134347638      -0.3326795755  6.958539e-04 -2.734965e-02 -2.369401e-02
        96      pv      -0.8616194381        2.339839973        5.095944664  5.288766e-03 -2.362814e-03  5.289961e-03
        97      pv       0.1624849475        1.999020839        5.956793409  2.991252e-03 -5.117859e-03  1.068387e-03
        98      pv      -0.4140537528        2.953491201        4.330227883  2.263931e-03 -5.609198e-03 -2.691626e-02
        99      pv       -1.629757868        2.847654454        5.651976447 -4.130107e-02 -1.905766e-02  8.054072e-03
       100      pv        -1.34855606        1.455294709        4.721286223  3.533908e-03 -3.200222e-02 -4.857482e-03
       101      pv       0.4033670893        2.842191761         6.31829643 -7.935056e-03  2.544744e-02  1.296745e-02
       102      pv       -7.722011655        3.343766578        4.373905838 -3.694975e-03 -3.255789e-03 -3.164560e-03
       103      pv       -7.274279328        4.205581086        3.448163174  4.235634e-04 -2.987669e-04 -1.640944e-04
       104      pv       -7.659345416        2.354326603         3.92651901  4.540181e-04  1.178919e-02 -2.723857e-02
       105      pv       -8.732946111        3.588396935        4.749263477 -5.322391e-03  1.876327e-03 -1.369614e-03
       106      pv       -7.062247079        3.413285795        5.149535287 -1.623993e-02 -2.884017e-02  1.268602e-03
       107      pv       -7.993458563        4.888112622        3.180034007  6.733611e-04 -1.228585e-02  3.361638e-02
       108      pv       -8.206388166        9.359209495       -1.971788403  5.440353e-03 -3.940939e-03 -6.843897e-03
       109      pv       -9.193381755        10.49505377        -1.73401119 -2.572778e-03 -1.125397e-04  4.670041e-04
       110      pv       -7.531931719        9.499008256        -2.81956356 -1.476305e-02 -2.123522e-03 -1.295816e-02
       111      pv       -8.749108715         8.44738713       -2.273951588  2.736638e-03 -1.069087e-02  4.774634e-02
       112      pv       -7.530867529        9.118588443       -1.119446257  6.223731e-03  1.945303e-02 -6.670143e-03
       113      pv       -9.075975919        11.19511557       -2.398149167  4.184552e-03 -1.440502e-02 -1.566222e-02
       114      pv       -8.185937548        5.874397993        7.878582662 -3.314513e-03 -2.578453e-04 -3.484099e-03
       115      pv       -8.772365267        5.423900351        6.771503935  4.103115e-03 -1.409883e-03  4.153817e-03
       116      pv       -7.505569575        5.168040463        8.282909865  4.021308e-03  1.665196e-03 -1.199513e-02
       117      pv       -9.021771841         6.12582458        8.517704442 -9.087366e-03 -1.373267e-02 -1.340936e-02
       118      pv       -7.700486133        6.872569334        7.642395646 -3.389099e-03  1.038090e-02  7.246866e-03
       119      pv       -9.225931844        4.626885518        7.188748946  3.298394e-03 -1.323814e-02  1.009770e-02
       120      pv       -6.441177905        2.756221941        9.575319154 -3.778348e-03 -3.401246e-03 -1.854360e-03
       121      pv       -7.863174537        2.689591608        9.290395576  1.891295e-03 -2.656356e-03 -6.554424e-04
       122      pv       -5.836490651        2.373347207         8.72861185 -2.567385e-02 -2.060053e-02 -1.066069e-02
       123      pv       -6.239427147         2.09586109          10.391947  7.956443e-03  3.580428e-02  1.747182e-03
       124      pv       -6.109112488         3.77819643        9.730419526 -9.534108e-03  1.074475e-02 -1.574968e-02
       125      pv       -8.133739137        1.714927095        9.243983037  1.618729e-02 -1.168005e-02  3.734411e-02
       126      pv        2.264727548        3.051638697        14.78524686 -2.864252e-03  3.807166e-03  9.506319e-03
       127      pv         1.25810772        2.276598356        15.23046606 -2.560050e-03 -3.403150e-03  5.407328e-03
       128      pv        1.920422592        4.052406918        14.62549966 -2.141576e-02  1.139265e-03 -8.765110e-04
       129      pv        2.618392918        2.635967413        13.83430365  1.309002e-02  1.019887e-02 -4.045675e-03
       130      pv        3.084468821        3.120940162        15.45326398  2.203579e-02 -1.310396e-02 -1.289254e-02
       131      pv       0.5175581014        2.929139964        15.37899517 -1.238674e-02 -1.587413e-03 -1.387898e-02
       132      pv       -4.585550579        4.449379795        5.136034895  5.921820e-04  5.968241e-03 -3.776055e-03
       133      pv       -3.857089228        4.557109643        6.311987607 -2.571934e-03 -2.334375e-03 -5.248714e-04
       134      pv       -4.742385068        3.515376079        4.880023938  7.961600e-03  1.536244e-02 -1.203995e-02
       135      pv        -4.02555432        4.890490152        4.310701806  5.238697e-04 -6.257393e-03 -5.826881e-03
       136      pv       -5.537298832        5.027446617        5.237507476  1.649313e-02  1.505313e-02  1.186543e-02
       137      pv        -3.64485476        3.639599104        6.669112296 -1.978002e-02  9.938532e-03  1.984547e-02
       138      pv        4.999216444       -4.137649212        16.95868946  3.806245e-03  6.937279e-04 -3.821692e-03
       139      pv        5.289755853       -2.688400425        16.97729891 -6.776999e-03 -1.563211e-03  2.489146e-03
       140      pv        4.093127211       -4.291046267        16.36852371 -9.608691e-03 -6.882945e-03 -2.036303e-03
       141      pv        5.075280159       -4.565981791        17.97015136  7.491886e-03 -3.782576e-02 -1.310857e-02
       142      pv        5.776871334       -4.677888041        16.30932893  1.803532e-02  1.209689e-02  1.175018e-02
       143      pv        5.404770712       -2.388899563        16.04552547  6.964504e-03 -1.449523e-02  5.024643e-03
       144      pv        1.128359819        7.579572701        3.853447275  1.297952e-04 -7.377195e-04  8.105799e-05
       145      pv        1.784016257        8.712112197        4.387543531  5.597954e-03  3.045705e-03 -1.060546e-03
       146      pv    -0.002552377924        7.791559433        3.870733957 -7.557555e-03  4.231033e-03  4.620171e-03
       147      pv        1.312721999        6.651360027        4.336950279 -1.421010e-02  3.588401e-02  7.659542e-03
       148      pv         1.52226931        7.387060619         2.81401124  1.041390e-02  4.218558e-05 -2.040869e-03
       149      pv        2.816691601        8.601593457        4.268236666  1.366844e-02 -2.514392e-03  1.736060e-02
       150      pv       -4.428975648        12.98315392       -3.346226622 -2.742835e-03 -4.915253e-03 -1.735667e-03
       151      pv       -5.160096324        12.96855109       -2.179199692  3.515535e-03 -5.266595e-03  1.214803e-03
       152      pv       -3.608830006        12.30756286       -3.264225025  1.492860e-02 -2.770380e-03 -1.797327e-02
       153      pv       -4.073254855        14.00905573       -3.636326304  6.734871e-03 -1.868750e-02  1.821046e-03
       154      pv       -5.145943147        12.58711232       -4.125979461 -1.723241e-02  4.908140e-03 -1.328977e-02
       155      pv       -4.550613225        12.59780335       -1.524558085  2.349702e-02  1.430617e-02 -1.522262e-02
       156      pv        2.547131663        14.29832024       -10.68702647  1.082926e-02 -7.064532e-03 -3.581253e-03
       157      pv        2.210591173        15.20908309       -9.677520592  5.904426e-03  1.703605e-03 -2.990020e-03
       158      pv        1.849001328        13.51394239        -10.7857154  6.356488e-03 -7.174180e-04 -6.860161e-03
       159      pv        3.552712823        13.89261407       -10.39905597 -3.146029e-03 -3.997316e-03  2.139587e-02
       160      pv        2.486921175        14.80221202       -11.68571361  2.242652e-03 -3.886072e-03 -2.711327e-02
       161      pv        2.709305563        16.06582462       -9.796122184 -7.196955e-03  4.059415e-03 -1.823023e-03
       162      pv       -1.520682177        5.709879313        1.489617163 -1.476596e-02 -1.013609e-02  2.337006e-03
       163      pv       -1.632356719        7.002035678        1.918548453  2.794181e-03 -2.539974e-03  5.403710e-03
       164      pv      -0.8681237392        5.070256856        1.931799926  1.826966e-02  1.368806e-02  4.916323e-03
       165      pv       -1.353429815        5.653935181       0.4656518454 -1.962271e-02 -1.121864e-02  5.146339e-03
       166      pv       -2.461477594        5.332522205        1.542701605  5.516378e-03  1.636415e-02 -4.481747e-03
       167      pv       -1.424278546        7.483624525        1.120162681  2.325635e-02 -2.994637e-03 -3.927926e-03
       168      pv       -5.662574421         10.0853801        2.017548889  3.891897e-03 -2.759176e-03  3.959550e-04
       169      pv       -5.315026561        10.19937998        3.355601046  5.023617e-03  1.094507e-04  4.806604e-03
       170      pv         -6.7066407        10.43063196        1.913475243  3.265505e-03  2.591513e-03  2.700248e-02
       171      pv       -5.711043843        9.008332408        1.709015968  1.054894e-02  1.915407e-03 -1.109663e-03
       172      pv       -4.956925107        10.62132964        1.362631631 -1.783107e-02 -2.143975e-02  2.119127e-02
       173      pv       -4.560311398        9.636051673        3.433213204 -6.830038e-03  3.042422e-03  2.425159e-02
       174      pv        1.819667665        15.52201963        0.439118018 -3.649430e-03  2.170295e-03 -1.560488e-03
       175      pv       0.7343683449        14.56309538       0.3384140695 -2.639288e-03  5.833009e-03 -6.813584e-04
       176      pv        1.461917587        16.45299836       0.7479690963  5.949659e-03  6.510408e-03 -2.909810e-02
       177      pv        2.324514973         15.5220969      -0.4989784234 -2.507742e-02 -1.692928e-03 -1.066516e-02
       178      pv         2.52739102         15.1713725        1.226965488 -7.537613e-03  2.942738e-02 -2.102627e-02
       179      pv        0.806271121        14.01781553         1.09210362  1.476775e-03 -3.733212e-03  2.999889e-02
       180      pv         1.43890147        11.10372569        1.385359085 -6.999638e-03 -6.524840e-04  1.368221e-03
       181      pv        1.354638841        11.74220634      0.02136585102  2.653260e-03 -7.277898e-03  1.828841e-03
       182      pv       0.5177038696        11.13824657        1.973847418  1.742568e-03 -1.507864e-02 -4.729215e-04
       183      pv        2.151387194        11.64459209        1.972696767  8.989794e-03  1.334628e-02 -1.211569e-02
       184      pv        1.858921516        10.14416215        1.444107364 -2.143596e-02  2.429864e-02 -9.189753e-03
       185      pv       0.7917590719        11.24561281      -0.5677926059  3.472352e-02 -4.830308e-03  6.390814e-03
       186      pv       0.1999338966         14.9252472        3.999075031  5.044367e-03  1.135158e-02 -2.606348e-03
       187      pv      -0.4905315134        14.23406793        2.994164079 -7.198812e-03  7.339063e-03 -8.258330e-04
       188      pv        0.987584259        14.36329504        4.434535471 -8.590276e-03 -1.339506e-02 -9.198891e-03
       189      pv      -0.5510333825        15.10288777           4.848461  9.245161e-03  7.127403e-03 -1.734449e-02
       190      pv       0.5411434716        15.85605592        3.561218395  1.389145e-02  6.720850e-03 -7.224417e-03
       191      pv      -0.9856393354        13.52802717        3.460354804 -1.830577e-02 -2.030571e-02  2.673505e-02
       192      pv       -6.018143006        8.313113242        5.897408742  3.373792e-03  3.171388e-03 -1.631038e-03
       193      pv        -5.91786153        9.696449927          6.0455387 -2.183638e-03 -3.572701e-04  1.721745e-03
       194      pv       -6.904388882         8.12578399        5.540458882  1.191495e-03  1.508850e-03  1.979467e-02
       195      pv       -5.914277436        7.939529377        6.987466435  9.054518e-03  6.716033e-03 -1.998175e-02
       196      pv       -5.242911805        7.948777339        5.240597312  2.298008e-02  1.243028e-02  1.119242e-02
       197      pv       -5.803683202        10.08101004        5.158224929 -1.486909e-02  1.327582e-02  1.623006e-02
       198      pv       -5.823496748        9.827746884        9.724419794 -3.319829e-03  6.248323e-03 -4.539632e-03
       199      pv       -5.282962689        10.72323147        8.646215377 -2.269500e-03 -1.361178e-03 -7.453206e-03
       200      pv       -4.900155733         9.46816953        10.37385471 -1.218016e-02  1.627421e-02 -1.065516e-02
       201      pv       -6.303186557        8.947938422        9.311055192  1.607574e-03 -2.236851e-02  1.741908e-02
       202      pv       -6.545619898        10.38688261        10.30679695 -1.929171e-03  8.398471e-04 -9.667419e-03
       203      pv       -5.515371244         10.2925584        7.839232934 -3.268828e-02 -1.697158e-02  5.649223e-03
       204      pv       0.6723638381        18.79815717        7.747381818 -4.600821e-03  3.458078e-03 -6.779314e-03
       205      pv         1.61837773        19.81954572        7.694441506  3.001515e-03  2.189625e-04  1.403681e-03
       206      pv       0.9306116563        18.21477799        8.636409676  1.169761e-02  4.224174e-03 -7.622869e-03
       207      pv       0.8267631734        18.25729374        6.835072009  8.879394e-04 -4.178304e-02 -4.329876e-03
       208      pv      -0.3025141073        19.29158979        7.863720568 -2.100673e-03 -1.426851e-02 -2.511402e-02
       209      pv        1.204845338        20.41700782        7.012391688  1.879405e-02  5.803364e-03 -2.379824e-02
       210      pv       -1.678124088         10.0037698        9.096022765 -2.791385e-03  1.083101e-03 -1.110067e-02
       211      pv       -1.250170126        10.96779581        8.156924614 -5.513997e-04  3.251968e-03  6.244196e-03
       212      pv      -0.9156715429         9.91945751         9.88019229  1.176544e-02 -5.627316e-03 -1.121978e-02
       213      pv       -1.769945986        9.013216035        8.736086742 -1.456190e-03 -5.109721e-03  9.405765e-03
       214      pv       -2.585611618        10.30516548        9.671236495  2.047054e-02  3.249728e-03 -3.622902e-04
       215      pv       -1.478249005         11.8527085        8.531984872 -9.166280e-03  2.841636e-03 -1.606511e-02
       216      pv         3.90375987       -4.667950937       -7.343957787 -2.861228e-03 -4.018206e-04 -4.869474e-03
       217      pv         4.38304534       -4.314082848       -6.075830224 -5.150107e-03 -2.770663e-03 -2.487163e-03
       218      pv        4.610063869       -4.620345606       -8.073946533 -5.985636e-03 -5.107725e-03 -5.941320e-04
       219      pv        3.119812771       -3.874976517       -7.542915996  2.723307e-02  1.444132e-02 -7.555707e-03
       220      pv        3.528190823       -5.737731199       -7.273450892  7.374667e-03  1.482299e-02  3.367319e-02
       221      pv        3.764234871       -4.889548516       -5.501428017  2.866643e-02  2.670737e-02 -1.073800e-02
       222      pv        2.026825316      -0.9565257767       -2.239092776  4.556175e-03  2.764082e-03  9.193494e-03
       223      pv        3.060180436       -1.060564179       -1.290491399 -6.238385e-03 -1.100917e-03 -1.047594e-03
       224      pv         1.29690154      -0.2448544091        -2.00976261  3.365871e-03 -9.748163e-03  1.581668e-02
       225      pv        1.602231566       -1.940725345       -2.331090885  7.963891e-03 -1.972522e-02 -5.206529e-03
       226      pv        2.558046515      -0.7264485273       -3.214811821  7.604428e-03 -5.167072e-03 -4.442467e-03
       227      pv        3.776989591       -1.458036496       -1.791904344  2.308652e-02 -1.906823e-03  1.310713e-02
       228      pv        7.650451441        1.405074648       -2.117423201  6.824446e-03 -6.654307e-03 -2.454713e-03
       229      pv        6.659575143        2.297372987        -2.70762179 -2.788828e-03  4.704243e-03  3.944237e-03
       230      pv        8.350569471        1.154122102       -2.916737256 -3.446472e-03  3.370711e-03  5.353208e-03
       231      pv        7.055611923       0.5790919772       -1.742616461  2.534808e-03  2.996102e-03 -2.127430e-02
       232      pv        8.192674149        1.874356987       -1.326901762  3.738638e-02  8.790068e-03  2.274122e-03
       233      pv        5.882718214        2.056597647       -2.174008204  5.249917e-03 -2.708757e-02 -1.364426e-02
       234      pv        8.635667955       -3.131538371        -3.22939908  5.890543e-03 -4.468260e-03 -6.049058e-03
       235      pv        7.955783022       -4.051952827       -2.410400599  3.851820e-03 -2.388501e-03 -3.179767e-03
       236      pv         8.68390435       -3.551352987       -4.273919412 -1.503864e-02  5.802185e-03 -2.019384e-04
       237      pv        9.602393963       -2.799577335       -2.818848176 -3.115632e-02 -4.775863e-03 -2.854430e-02
       238      pv           7.970484        -2.23026289       -3.249271107  9.502199e-03  3.513209e-02  6.488882e-03
       239      pv         7.26685189       -3.555533333       -1.909135626  9.200555e-03 -2.026748e-02  5.622395e-03
       240      pv        3.323094511       0.8880087433        4.784069988  3.639998e-03  4.613330e-03  3.526657e-03
       241      pv        4.311817093       0.7309435298        5.786615612  1.977229e-03 -2.596727e-03  8.712229e-03
       242      pv        2.874019938      0.05178853165        4.697976788  1.205495e-02 -3.698862e-03 -5.389693e-04