<OpenMD version=2>
  <MetaData>

molecule {
  name = "methanol";
  atom[0] { type = "CT"; position( -5.96684, 1.08283, -0.00928);}
  atom[1] { type = "OH"; position( -4.93201, 2.04823, 0.02864);}
  atom[2] { type = "H1"; position( -5.60539, 0.17925, -0.5063);}
  atom[3] { type = "H1"; position( -6.826, 1.48931, -0.54848);}
  atom[4] { type = "H1"; position( -6.26343, 0.83944, 1.01366);}
  atom[5] { type = "HO"; position( -4.68999, 2.24405, -0.89252);}

  bond { members(1, 5); }
  bond { members(0, 3); }
  bond { members(0, 2); }
  bond { members(0, 1); }
  bond { members(0, 4); }

}


component{
  type = methanol;
		nMol = 108;
}

forceField = "Amber";
ensemble = NVE;
electrostaticSummationMethod = "shifted_force";
electrostaticScreeningMethod = "damped";
cutoffRadius = 9;
dampingAlpha = 0.2;
targetTemp = 300;
tauThermostat = 100;
dt = 1.0;
runTime = 0.5e4;
tempSet = "false";
sampleTime = 5;
statusTime = 10;

## Last run using OpenMD Version: 2.3 Revision: 2055
  </MetaData>
  <Snapshot>
    <FrameData>
        Time: 5000
        Hmat: {{ 19.36269638, 0, 0 }, { 0, 19.36269638, 0 }, { 0, 0, 19.36269638 }}
  Thermostat: -0.0001642766318 , 0.1921611472
    Barostat: {{ 0, 0, 0 }, { 0, 0, 0 }, { 0, 0, 0 }}
    </FrameData>
    <StuntDoubles>
        12      pv       -4.106259497        1.181551815       -13.42401041 -2.235664e-03 -8.704831e-03  8.230673e-04
        13      pv       -4.071998012      0.03381611168        -12.6064553  2.122316e-03 -1.364780e-03 -1.368601e-03
        14      pv       -5.098192262        1.442458365       -13.81661205  2.813003e-02 -4.313521e-03 -2.080052e-03
        15      pv       -3.252333988        1.127137346        -14.1280997  4.474164e-03  4.463460e-03 -2.022328e-02
        16      pv       -3.850285025        2.111237731       -12.70796776  2.455860e-03 -6.283223e-03 -1.309058e-02
        17      pv       -4.971085158       0.1190095026       -12.23545181 -1.686710e-02  5.306400e-03 -2.099915e-02
        18      pv       -12.09297135      -0.4790683442       -10.25031517 -2.920002e-03  5.326720e-03 -4.008279e-03
        19      pv       -11.85488973       0.3877996566       -9.097435287  1.404699e-03 -3.199997e-03  2.074959e-03
        20      pv       -13.11018061      -0.3176167516       -10.68535651 -1.970395e-02 -1.040979e-02  2.747861e-02
        21      pv       -11.97882116       -1.478532377       -9.989892218 -4.046668e-02  1.031816e-02  2.127918e-02
        22      pv       -11.31485359      -0.1820219867        -11.0079274 -2.451284e-04  1.151469e-02  1.114725e-02
        23      pv        -12.8523707       0.3471719556       -8.737365778  7.868301e-03 -8.330195e-03  2.531279e-02
        36      pv      -0.4470362445       -17.06396164       -13.81623982 -1.881634e-03 -1.844224e-03 -2.472651e-03
        37      pv      -0.5602463343       -17.71345672       -12.49678951 -3.347042e-03  6.320690e-04  3.228687e-03
        38      pv       -1.124420183       -17.57192788       -14.39697682 -1.369160e-02  7.218295e-03  1.525739e-02
        39      pv       0.5725193654       -17.09926415       -14.17164831 -8.996552e-03  7.939550e-03  9.243232e-04
        40      pv      -0.7878436705       -16.08137023       -13.81306807 -1.676350e-02  9.843679e-03 -6.748266e-03
        41      pv      -0.8171362047       -18.65868342       -12.68852382  2.654982e-02  7.960237e-03 -3.532489e-02
        78      pv        9.351680855       -3.499496644       -11.03305728  1.138254e-03  1.412822e-03 -1.594088e-03
        79      pv        8.158531469       -4.086348072       -10.52475623 -7.309466e-03 -2.276032e-03  2.675508e-04
        80      pv        9.630508353       -2.857687492       -10.34896604 -3.795666e-02 -1.815449e-03 -5.629283e-03
        81      pv        9.220997914       -3.063386944       -12.01123522 -3.124616e-04  2.982984e-02 -1.179655e-02
        82      pv        10.16184887       -4.226679184       -10.91426459  1.506006e-02 -2.174349e-02 -1.137134e-02
        83      pv        8.348085445       -5.069725701       -10.36101807 -8.119525e-04 -8.720859e-03  2.591286e-02
       132      pv       -9.026167635        8.337327358         6.33227555  4.440411e-03 -3.352848e-03  8.322500e-03
       133      pv       -9.593746512        9.106351692        5.381113259  1.988775e-04  4.262160e-03 -8.162022e-03
       134      pv        -9.28842594        8.780308215        7.275581679  6.422073e-04 -4.454081e-02  7.546062e-03
       135      pv       -7.898084518        8.352478723        6.274660221  3.890383e-03 -2.777008e-03 -7.043752e-03
       136      pv       -9.398817049         7.37258494        6.348607723  1.189172e-02  4.588084e-03 -1.462346e-02
       137      pv        -8.84142858        9.360896325        4.795335769  3.173202e-02 -2.931554e-02 -1.312135e-02
       138      pv        12.70177514        4.436888194         17.2885349  2.867806e-03 -2.455399e-03  8.928517e-03
       139      pv        11.75085658        4.122495271        16.35440003 -2.141193e-03 -1.523019e-04 -2.708023e-03
       140      pv        12.23413999        4.524525701        18.26969896 -1.944787e-02  4.489194e-02  1.205048e-02
       141      pv        13.32237355        5.317562953        16.92245807 -7.612023e-03  1.285081e-02 -1.959418e-03
       142      pv        13.41251437        3.557538121        17.35988586  1.914615e-02  6.981821e-03  2.183753e-02
       143      pv        12.20639183        3.736427322        15.54158848 -1.893252e-02 -4.302434e-03  5.027188e-03
       282      pv        -8.63997057        6.859396716        11.76790953  3.104958e-03 -2.267081e-04  1.353614e-03
       283      pv       -8.072744981        5.603985032         12.2394621  2.387953e-03 -1.520188e-04  2.008056e-03
       284      pv        -9.74282624        6.752856428        11.42944165  1.636638e-02 -2.172197e-02  3.886347e-03
       285      pv       -8.072157129        7.117109791        10.76142787 -1.734187e-02 -3.103200e-03 -2.201210e-02
       286      pv       -8.432246675        7.595738506        12.50575484 -3.165019e-03  2.525951e-02 -1.577499e-03
       287      pv       -8.031649162        5.607568934        13.21948666  1.488913e-03  8.585645e-03  6.564827e-03
       366      pv        20.09450269        12.61236742       -3.010458157 -8.984247e-04 -9.189798e-04 -9.247620e-03
       367      pv        18.97749679        11.83138791       -2.740876327  2.752297e-03  7.521848e-04  5.498045e-03
       368      pv        20.96161042        11.92197558       -3.212740414  1.073441e-02  6.317239e-04 -6.098202e-03
       369      pv        20.19979319        13.27151697       -2.149296586  2.093888e-02 -3.508048e-02 -7.516900e-03
       370      pv        19.92697279        13.30317226       -3.870140745  2.264306e-03 -1.105030e-02 -9.176869e-03
       371      pv        19.01878801        11.59771808       -1.763703503  4.007279e-03 -1.150330e-02  5.415413e-03
       390      pv        3.383821179        20.84420321       -1.124344424 -4.803241e-03  1.553424e-04 -5.539701e-03
       391      pv        4.285587493        21.93136192       -1.008640118  2.381996e-03 -5.197941e-03  4.759088e-04
       392      pv        3.674939606        19.88367689      -0.6207537302  8.034472e-03  3.206617e-02 -1.329842e-02
       393      pv        3.209116874        20.71263561       -2.092865672  2.323566e-04 -1.483269e-02  1.540870e-02
       394      pv        2.531789794        21.10809037      -0.5116008541  5.445515e-03 -3.129045e-02 -2.681548e-03
       395      pv        4.213075796        22.14285474     -0.02540092191 -1.315490e-02  7.618085e-03  1.149522e-02
       402      pv       0.6928901491        10.19539073        0.316799785 -6.492346e-03  2.771286e-03 -1.105755e-03
       403      pv     -0.05902577323        11.33793903     -0.06306892394  7.421500e-04 -4.201043e-04  1.366795e-02
       404      pv       0.3402134371        9.801296515        1.277228085 -1.842645e-02  6.073087e-03 -2.986859e-03
       405      pv        1.788726508        10.46534562       0.3445433623  1.005626e-02  1.878780e-02 -2.117057e-03
       406      pv        0.506895443        9.428939243      -0.4400669998 -1.832023e-02  2.151541e-02 -1.700998e-02
       407      pv       0.1877788417        12.04902584       0.5795595332 -7.857774e-03  1.631081e-02  8.100762e-03
       468      pv       -3.330361394       -3.982887805       -7.277099264  8.341043e-04 -2.212467e-04  1.377354e-03
       469      pv       -2.197750537       -3.152790106       -6.993496354 -8.355278e-03  4.245354e-03  4.211346e-03
       470      pv       -3.478950846       -4.238686339       -8.347444305  6.790357e-03  1.072654e-02 -9.050051e-03
       471      pv       -4.191986768       -3.481808656        -6.85605317 -1.674720e-02  1.225627e-02 -1.168118e-02
       472      pv       -3.206072985       -4.896923553       -6.759413833  1.136781e-02  2.932248e-02 -2.621696e-02
       473      pv        -2.42026263       -2.239516198       -7.380953393 -2.887614e-02  6.758608e-03  8.953415e-03
       474      pv        19.59033944       -3.976233677       -9.128569932  8.182231e-04  5.446319e-03  2.178837e-03
       475      pv        19.66253803       -3.847390291       -7.657369327 -1.973357e-03  8.309059e-04  1.013235e-03
       476      pv        20.39728768       -4.670993399         -9.4841755  2.737270e-02  1.323551e-02 -1.163320e-02
       477      pv        19.69207762        -3.07092232       -9.536984429  1.411733e-02  1.040995e-02  1.285313e-02
       478      pv        18.63584924       -4.391134649       -9.426760213  9.682720e-03  9.417346e-04 -3.124042e-02
       479      pv        18.80316673       -3.485264741       -7.376618386 -1.624863e-02 -5.904700e-03 -6.340651e-03
       486      pv        17.61554787       -13.52934422        17.18395989 -9.790558e-04 -5.559838e-03 -2.941542e-03
       487      pv         16.8635672       -13.76991357         18.3142879  5.361426e-03 -1.954582e-04 -6.114931e-03
       488      pv        18.19831343       -12.62048288        17.37480298  9.417178e-03  4.177954e-03 -7.916310e-03
       489      pv        16.94860773       -13.39918794        16.32226067 -2.046235e-02  1.206418e-02 -1.134001e-02
       490      pv        18.17180811       -14.42386273        17.09741989 -1.003583e-02 -3.800067e-03  2.895499e-03
       491      pv        17.45428473       -13.54606071        19.06500028  6.268702e-03 -1.970409e-02 -3.374716e-02
       612      pv        28.04603214        18.10312176        16.63499008 -4.929203e-03  1.449851e-03 -8.722610e-03
       613      pv        29.50209532        18.30826015        16.53968468  1.543276e-04 -1.387387e-03 -6.854621e-03
       614      pv        27.81948363        18.19951306        17.73153998  1.113310e-02 -3.647186e-02  1.312202e-02
       615      pv        27.80623921        17.06880657        16.38748618  2.631049e-02  7.453555e-03  2.986782e-02
       616      pv        27.42101051        18.76715583         16.0773636  2.434813e-03 -3.528402e-02 -1.082579e-02
       617      pv        29.64118875        19.26604994        16.70951038 -1.968726e-02  1.390690e-02 -1.228572e-03
         6      pv        3.058816295       -20.85311784        2.888239539 -1.365973e-03  3.958874e-03 -4.334256e-03
         7      pv        1.938907165       -21.59298449        2.423120889 -1.431237e-03  2.685079e-03  8.508884e-03
         8      pv        3.947550691       -21.43859437        2.869654495  2.098968e-03 -9.647454e-03  7.839142e-03
         9      pv        2.795665432       -20.55260249        3.998671878 -1.201655e-02 -1.161969e-02  7.785015e-03
        10      pv        3.218900501       -19.98151917        2.325174275  1.233882e-02 -1.394820e-02 -4.795585e-03
        11      pv         1.53061174       -21.03267066         1.59749713  4.358839e-04 -1.137053e-02  1.279801e-03
       144      pv       -6.141195519        23.42704577         2.93172047 -2.851785e-03  1.506763e-03 -3.714629e-03
       145      pv       -5.590574814        23.18204628        4.261076932  9.744098e-04  6.406378e-03  5.246076e-03
       146      pv         -6.2038343        24.49645643        2.764845783  2.483277e-02 -1.839455e-02 -1.732654e-02
       147      pv       -7.242386406        23.18418349        2.831119892 -8.586083e-03 -2.847518e-03  3.212187e-03
       148      pv       -5.526434571        22.92760192        2.068773115 -5.508430e-03  1.555510e-02 -1.714678e-02
       149      pv       -4.630239304        23.03923474        4.019549391  3.612462e-03 -8.969906e-04  3.599963e-02
       156      pv        12.37548095        17.33241701       -6.454794899 -1.681125e-03  6.716748e-04 -3.020119e-03
       157      pv        12.58653181        18.27162354       -7.534741692 -2.248140e-03 -7.711774e-03 -1.988652e-03
       158      pv        12.02958074        16.34496782       -6.894324913 -1.313767e-02  3.673977e-03 -2.548706e-02
       159      pv        11.62915851        17.84386088       -5.906281823 -1.090271e-02 -2.123854e-02 -2.240832e-02
       160      pv        13.23915912        17.24912118       -5.925192766 -5.768323e-03  2.901908e-03  7.943842e-03
       161      pv        12.70099675        17.63652873       -8.283997617 -4.958322e-03 -9.621605e-03  1.260942e-02
       222      pv       -7.672034235      -0.2092328857         8.02480404  6.484113e-03 -4.974893e-03 -7.559188e-04
       223      pv       -6.486015135       0.5335527354        7.676482878  1.328495e-03 -3.632737e-03 -4.116904e-03
       224      pv       -7.439139134       -1.127811291        8.668604017 -5.627525e-03  2.145498e-03  1.991699e-02
       225      pv       -8.344819448      -0.4466112362        7.195648496 -4.134122e-03  1.584101e-02 -5.640718e-03
       226      pv       -8.258302556       0.4565243315        8.673609259  1.504734e-02  1.384237e-02 -2.649660e-03
       227      pv       -6.789344951        1.481336765        7.455096756 -1.251805e-02 -8.098691e-03 -2.741656e-04
       270      pv       -0.198364957       -6.852543626        27.00753688 -6.631610e-03  3.582139e-03 -2.145486e-03
       271      pv       0.2144498513       -8.176288621        27.43710043  1.041094e-03  2.765872e-03  7.719875e-03
       272      pv        0.212913825       -6.137246263        27.72063382  5.801753e-02 -3.269087e-02  2.108595e-02
       273      pv       -1.339214276       -6.841154619        26.74275717 -2.082085e-03  3.385219e-03 -1.991782e-02
       274      pv       0.2926717325       -6.579522106        26.08725994 -3.076289e-02  3.060002e-02  5.321476e-03
       275      pv        1.167681267       -8.366284236        27.22627232  1.593380e-02 -2.084337e-02 -3.065598e-02
       324      pv        17.67964852         10.5180701        5.380762318 -3.062749e-03  5.912109e-03  7.227461e-03
       325      pv        17.87925791        9.113044637        5.219157656 -2.064547e-03  3.847102e-03 -2.764631e-03
       326      pv        17.28080574        10.60503751        6.349335254  1.097964e-02  5.665529e-03  4.329915e-03
       327      pv         16.9599626         10.7833041         4.62862396  3.469306e-02  1.858937e-02  5.328035e-04
       328      pv        18.62235299        11.09564201        5.267327234  3.810832e-03 -2.206794e-02 -3.089246e-03
       329      pv        17.20496427        8.576341815        5.686838614  1.513285e-02 -6.713215e-03  7.692490e-03
       432      pv        12.34924714        10.73868917       -16.15550028 -2.312627e-03 -2.143343e-03 -4.268185e-03
       433      pv        12.04983495        9.473868941       -15.68216111  1.702236e-03 -6.032908e-03  1.531951e-03
       434      pv        11.58672424        11.47882643       -15.77731805 -6.621646e-03 -7.431588e-03 -2.180669e-02
       435      pv         12.4161576        10.68264074       -17.21000419  4.494250e-04 -2.116925e-02 -5.127200e-04
       436      pv        13.22534956        11.01976863       -15.71326422  7.743061e-03 -3.746679e-03  2.115889e-02
       437      pv        12.34561452        8.869167377       -16.46144928  4.683187e-03 -4.379774e-03  1.964099e-02
       456      pv        10.38790474       -12.09715255        15.78367151  1.171456e-03 -6.823433e-04 -4.672703e-03
       457      pv        10.92126848       -13.25742767        15.03985152 -3.730045e-03  1.830721e-03  9.465947e-04
       458      pv        9.525830533       -12.47210309        16.39230595 -2.013743e-02 -3.372962e-03  3.046341e-02
       459      pv        10.05821532       -11.19497966        15.12763093 -1.464380e-02 -9.184868e-03  6.811716e-03
       460      pv        11.12498499       -11.67694784        16.45034822  3.073407e-02  3.660475e-03 -1.091899e-02
       461      pv        11.01520353        -14.1188483          15.723877 -3.972543e-03 -1.929534e-03 -1.226412e-02
       504      pv        13.45494438        4.221755124        7.643129903  6.144245e-04  2.879277e-03  5.156237e-03
       505      pv        12.97754991         3.15941392        6.821605529  8.020536e-04 -7.319237e-04  4.650839e-03
       506      pv        12.95143348        4.113778042        8.625312831  2.054083e-02 -3.681613e-02  6.875136e-03
       507      pv        13.30458523        5.258984004        7.155174646 -7.562033e-03 -3.003101e-02 -6.585779e-03
       508      pv        14.51600391        4.014869621        7.812651855 -5.519217e-03  5.058825e-03 -3.396790e-02
       509      pv        13.20407661        3.382110565        5.870692553  2.668126e-02  3.595214e-03 -1.286146e-02
       516      pv        11.29800051        10.02436574       -1.203023937  3.009558e-04  5.396757e-03  3.828451e-03
       517      pv        10.34057327        10.78622257       -0.436257809 -3.367337e-03  3.417074e-03 -1.003577e-03
       518      pv        11.10304619        9.047586322       -1.237702574  1.370448e-02  1.736690e-03 -4.532339e-03
       519      pv        12.29343863        10.22296514      -0.7122315524 -1.872533e-02 -1.073616e-02 -4.220740e-03
       520      pv        11.31114748        10.41372679       -2.245408034 -1.842177e-02 -2.838063e-02  5.563978e-03
       521      pv        9.479944809        10.59268482      -0.8516163067 -1.063668e-02 -1.833972e-02 -1.081687e-02
       576      pv        13.19064744        19.45158239       -3.103818256  8.095095e-04 -3.793405e-03  8.835618e-03
       577      pv        14.24698237        20.37895468       -3.458177555 -4.121078e-03  4.471164e-03  1.393710e-03
       578      pv        13.08507934        19.30520198       -2.078656343  3.910548e-03 -7.443288e-03 -1.672780e-02
       579      pv        13.43201272        18.56843792       -3.592340984  3.300573e-03 -2.552045e-02  1.405043e-02
       580      pv        12.20786276        19.81270137       -3.498714144 -9.921815e-03  2.948455e-02 -1.693737e-02
       581      pv        13.72576342        21.17934521       -3.860643364  1.115359e-02 -1.390025e-02 -1.069983e-02
       588      pv       0.6861934435         26.2170436        6.664551224 -1.255913e-03 -3.966408e-04  2.944422e-03
       589      pv         0.55147909        27.64422331        6.950487616  4.391773e-03  4.508617e-03  1.650064e-03
       590      pv        1.824602688        26.04789245        6.505779341 -1.562626e-02  1.664463e-02  9.202124e-03
       591      pv      0.06932133093        25.92026877        5.771313752 -6.337964e-03  1.670714e-02  1.513038e-02
       592      pv       0.3357101053        25.70013525        7.509368047 -1.102828e-02 -5.124889e-03 -2.701474e-03
       593      pv     -0.03516603256        27.95875523        6.272437014 -7.906532e-03  2.549878e-03  1.357442e-02
       600      pv      -0.5471707321       -20.91731397        5.054889495  5.346460e-03 -4.611879e-03 -1.178323e-02
       601      pv      -0.4887153123       -20.40369952        6.434969654 -1.187978e-02  2.443708e-03  1.491724e-03
       602      pv       -1.616107809       -20.97967517        4.788128291 -1.414235e-02 -2.190278e-03  1.673466e-03
       603      pv      -0.2231283797       -21.94225564        5.175009679  4.610305e-03 -8.339217e-03  2.978682e-03
       604      pv     -0.01070608707       -20.39040676        4.368455044  1.973747e-02  1.563332e-02  1.739768e-02
       605      pv       0.4356850525       -20.30896275        6.640374969 -4.484542e-03 -1.436696e-02  8.127911e-03
       624      pv        13.78718743        13.31073213        5.443156848  6.589366e-03  2.237139e-03 -2.049363e-03
       625      pv        14.69807615        13.09370753        4.399412812 -3.425237e-03  1.358217e-03 -2.348829e-03
       626      pv        12.97395974         12.5309184        5.313255604  6.290291e-03 -1.047518e-03  2.122010e-02
       627      pv        13.33106138        14.28336809        5.271276862  5.546713e-03 -2.938086e-02  1.056304e-02
       628      pv        14.29122669        13.26831694        6.392502695  2.137752e-02  3.284147e-02 -1.456193e-02
       629      pv        14.12968032        13.11114076        3.538317943 -3.393376e-02  7.537200e-03  1.970688e-02
        96      pv         4.82553302       -3.351679893        10.69028818  1.593600e-03 -1.155478e-02 -6.647355e-03
        97      pv        5.072906881        -3.38027945        9.314869669  7.175082e-03 -4.355503e-03  9.265985e-04
        98      pv        3.820398473       -3.748889256        10.81098914 -5.653742e-04 -4.723161e-03  7.602923e-03
        99      pv         4.84357866        -2.35817893        11.06413854 -1.431532e-02 -2.372293e-02  2.551274e-02
       100      pv        5.449484296          -3.925182        11.24235851 -3.852115e-03 -1.175834e-02  1.346956e-02
       101      pv        6.027528583       -3.561783908         9.20791717  4.184943e-03 -8.461426e-03  1.905643e-03
       120      pv       -5.511093088        4.564459857        -5.69213595 -2.904068e-03  8.457976e-03  6.585115e-03
       121      pv       -6.338179502        3.552768019       -5.166155662 -5.917397e-03  1.642735e-03 -5.894745e-03
       122      pv       -4.573716222        4.236946421       -5.537937661 -3.524542e-02 -1.169612e-02 -1.366862e-02
       123      pv         -5.6137069        5.409225634       -5.125481382  1.203891e-02  4.742071e-03  2.126682e-02
       124      pv       -5.814180075        4.771388045       -6.744063251 -7.267367e-03  7.157540e-03 -1.660925e-02
       125      pv       -6.251931289        2.753487268       -5.786078667  7.136585e-04  2.415832e-04 -2.107893e-02
       204      pv       -1.407290589        21.64020884        17.46262013  3.917459e-03 -8.489258e-03 -8.118712e-03
       205      pv      -0.1905646446        21.36203956        16.84090266  6.093845e-03  1.572029e-03 -8.544627e-03
       206      pv       -2.077679828        22.13617923        16.69666617  2.043547e-04 -5.887418e-03 -2.723784e-02
       207      pv       -1.190298681        22.42884902        18.14860208 -1.390847e-02  7.080994e-03 -8.834632e-03
       208      pv       -1.913455303        20.88229905         18.0823085 -5.161448e-03 -3.312096e-03 -7.825727e-03
       209      pv      -0.1033918498        20.39569957        16.85469521 -1.187275e-02 -6.286761e-03  7.514934e-03
       288      pv       -12.08422452       0.6945233727       -16.77005717 -1.442670e-03 -3.790342e-03  1.559985e-03
       289      pv       -11.02437323      -0.1472720749       -17.20216243 -5.879650e-03 -4.304303e-03 -2.575699e-03
       290      pv       -12.98678617    -0.009767464279       -16.52565408 -2.698427e-02  5.511834e-03  6.349739e-03
       291      pv       -12.33653834        1.416838221       -17.64712388  4.334479e-02 -7.245606e-03  1.288277e-02
       292      pv       -11.86317088        1.279967189       -15.95994983 -1.066209e-02 -9.443638e-03  2.235530e-02
       293      pv       -11.45203332      -0.9237225851       -17.76626126  2.049409e-02  1.527920e-02 -1.384002e-02
       300      pv         3.28558597        8.007553132       -2.870537671  2.336727e-03  2.052781e-03 -8.767565e-03
       301      pv        2.262566016        7.160714375       -3.449405977 -2.899046e-03 -2.229896e-03 -1.717905e-04
       302      pv        3.521215787        7.563920707       -1.865424683  3.444355e-02  1.673788e-02 -6.762647e-03
       303      pv        2.871117784        9.047777362       -2.660626224  2.160156e-02  2.281048e-02 -1.262232e-02
       304      pv         4.18936925        7.866611869       -3.386467897  1.347556e-02  1.212001e-02  1.073662e-02
       305      pv        2.456335045        6.257668057       -3.254933363  9.807699e-03 -2.455988e-02 -2.934651e-02
       306      pv        2.873137751       -6.853760338        12.53842337  1.085348e-03 -6.658489e-03  1.412785e-02
       307      pv        2.309794873       -8.164739251        12.41919145  1.521048e-03  7.057727e-03  2.959464e-03
       308      pv        3.448551829       -6.890023572        13.41652391 -1.495656e-02  3.368300e-02  2.004919e-02
       309      pv        2.128891815       -6.144969001        12.71650954 -1.066589e-02 -1.050938e-02  7.809842e-03
       310      pv        3.470300551       -6.654399447        11.65843453 -4.844743e-03 -1.132260e-02 -2.282983e-03
       311      pv        1.467264659       -8.036796648        11.93101917  2.320589e-02 -1.458864e-02  1.053568e-02
       312      pv       -2.679096083        16.34336354        8.087704853  5.006658e-03 -4.531188e-03  6.970288e-03
       313      pv       -3.997482386        16.90719948        8.092228196 -2.359817e-03 -5.127494e-03  9.377923e-03
       314      pv       -1.988261426        16.99126301        8.506219551 -1.690401e-02  6.713598e-03  1.134012e-02
       315      pv       -2.262914096        16.17097884        7.126369187  6.529940e-03 -4.132096e-02 -2.494177e-02
       316      pv       -2.654603381        15.51205964        8.784869363 -2.369430e-03  8.315425e-03 -5.030891e-03
       317      pv       -3.957643363        17.62724117        7.396896536  1.196490e-02 -2.087982e-02 -4.526150e-03
       348      pv        2.790480676       -2.845267551       -5.059958583 -5.378703e-03 -2.246213e-03  4.269685e-03
       349      pv        1.670613948        -2.11530474       -5.563149653  1.335341e-03 -2.180616e-05  3.842126e-03
       350      pv        3.624464685       -2.822286643       -5.721474563  1.925450e-02 -4.874397e-03  3.823688e-04
       351      pv        2.615981983       -3.920104737       -5.021325192 -7.806302e-03  2.361126e-02 -6.917739e-03
       352      pv        2.985313891        -2.54920224       -4.040737248  8.076340e-03  1.084165e-02  2.074755e-02
       353      pv        1.237335676       -2.823481129       -6.056991018  1.491915e-02  8.701941e-03 -3.461418e-02
       354      pv       0.6457434613        6.510189417        20.57589645 -4.662066e-03 -4.390013e-03 -1.785589e-03
       355      pv      -0.7375736728        6.708016041        20.32385694  4.035856e-03  1.696106e-03  2.480647e-03
       356      pv       0.9352314934         5.61880145         19.9967165 -3.063520e-02  2.722335e-02  1.291875e-02
       357      pv       0.7517921333        6.400428707        21.62236046  8.104350e-03 -1.392182e-02  2.508281e-02
       358      pv        1.253493065        7.416598589        20.25793996 -4.911441e-04 -1.749087e-03 -1.214704e-02
       359      pv       -1.114499416        7.283159873        20.99789808 -9.190713e-03 -5.409072e-03  1.947439e-02
       396      pv       -2.326456628        22.75070836        21.57818163  9.138581e-03  3.556211e-03 -4.825946e-03
       397      pv       -2.897126734        22.22913332        22.70617521 -4.218728e-04 -4.786078e-03 -8.823637e-04
       398      pv       -2.802534773        22.52112258        20.64626375  1.813022e-02  3.574651e-02  7.027916e-03
       399      pv       -1.356991264        22.53382941        21.52907054 -4.095725e-03 -1.652500e-02 -1.315429e-03
       400      pv       -2.525122436        23.85365704        21.68993899 -1.503277e-02  1.451611e-02 -1.701667e-02
       401      pv       -3.344610485         21.4774794        22.37065149  1.967248e-04 -6.111960e-03 -3.022293e-02
       462      pv        20.37406876       -18.14475373        13.81306799 -6.387995e-04 -2.114376e-03  3.102229e-03
       463      pv        20.11300968       -19.16412974        12.89112656 -2.256918e-03 -1.150436e-03  2.629550e-03
       464      pv        21.03349813       -17.32702076        13.41069921  1.487659e-02 -1.081719e-02 -2.021476e-02
       465      pv        20.80584749       -18.63958396        14.64392111 -1.414571e-02  2.866176e-02  1.568818e-02
       466      pv        19.35065089       -17.85319374        14.17853388  1.189729e-02  2.786772e-02 -3.384088e-03
       467      pv        20.51035715       -20.03980873        13.32862675 -3.434697e-04  1.834474e-02  2.224762e-03
        66      pv       -0.576601345       -11.01335361        29.34156606  4.269268e-03 -4.622483e-03  3.101091e-03
        67      pv       -1.630096586       -11.49252198        30.14435484 -3.667355e-03 -1.265952e-03  2.593875e-03
        68      pv       -1.091844185       -10.73984609        28.46296492  8.520740e-03 -1.769913e-02 -1.195279e-03
        69      pv       0.1052964702       -11.82573967        29.04988459 -2.423387e-02  5.082666e-02 -2.352319e-03
        70      pv     0.001153941379       -10.18174543        29.79229831 -1.100509e-02 -8.330665e-03 -4.323357e-02
        71      pv       -1.100375896       -12.17548682        30.72303199  1.500025e-02 -2.077426e-02  3.715886e-03
        84      pv        28.00513442        4.175817808        7.109953509 -9.827442e-03 -2.370802e-03  6.091288e-03
        85      pv        27.36537433        4.324739642        8.378538908  3.532505e-03 -3.548483e-03  1.453134e-03
        86      pv        27.44699549        3.411472922        6.540364269 -6.270375e-03  2.117543e-03  2.002083e-02