<OpenMD version=2>
  <MetaData>

molecule {
  name = "methanol";
  atom[0] { type = "CT"; position( -5.96684, 1.08283, -0.00928);}
  atom[1] { type = "OH"; position( -4.93201, 2.04823, 0.02864);}
  atom[2] { type = "H1"; position( -5.60539, 0.17925, -0.5063);}
  atom[3] { type = "H1"; position( -6.826, 1.48931, -0.54848);}
  atom[4] { type = "H1"; position( -6.26343, 0.83944, 1.01366);}
  atom[5] { type = "HO"; position( -4.68999, 2.24405, -0.89252);}

  bond { members(1, 5); }
  bond { members(0, 3); }
  bond { members(0, 2); }
  bond { members(0, 1); }
  bond { members(0, 4); }

}


component{
  type = methanol;
		nMol = 108;
}

forceField = "Amber";
ensemble = NVE;
electrostaticSummationMethod = "shifted_force";
electrostaticScreeningMethod = "damped";
cutoffRadius = 9;
dampingAlpha = 0.2;
targetTemp = 300;
tauThermostat = 100;
dt = 1.0;
runTime = 0.5e4;
tempSet = "false";
sampleTime = 100;
statusTime = 10;

## Last run using OpenMD Version: 2.3 Revision: 2055
  </MetaData>
  <Snapshot>
    <FrameData>
        Time: 0
        Hmat: {{ 19.36269638, 0, 0 }, { 0, 19.36269638, 0 }, { 0, 0, 19.36269638 }}
  Thermostat: -0.0001642766318 , 0.1921611472
    Barostat: {{ 0, 0, 0 }, { 0, 0, 0 }, { 0, 0, 0 }}
    </FrameData>
    <StuntDoubles>
        30      pv       -5.944220933        11.35874997       -4.649933678 -4.137082e-03 -7.490721e-03  2.341116e-03
        31      pv       -5.919134436        12.85780944       -4.531089794 -1.672850e-03 -1.874152e-03 -3.641447e-03
        32      pv       -6.938326335        11.03900543       -4.820251538 -3.487565e-02  1.687383e-02 -6.028585e-03
        33      pv        -5.49749812        10.74804257       -3.779144368  2.142906e-02  9.137683e-03  5.750511e-03
        34      pv       -5.380317985        11.08372923       -5.509137336  1.982947e-02 -2.118922e-02  8.246577e-03
        35      pv       -5.103557308        13.01734321       -3.929400871  5.382685e-03  3.353080e-02 -1.311347e-02
        84      pv        28.52595732         6.24052278        8.728161238 -3.759474e-03 -4.992307e-03  6.782758e-03
        85      pv        28.13264525        5.044996392        9.383197791 -6.233403e-03  6.675373e-05 -1.480091e-03
        86      pv        29.37084309        6.737034145        9.165583046 -1.047996e-02  9.892936e-03 -5.657031e-03
        87      pv        27.68705772        6.913188615        8.733231803  2.919245e-02 -1.049791e-02  4.541018e-03
        88      pv        28.80401298        6.023117057        7.691655081  9.138709e-03 -8.251667e-03  4.258933e-02
        89      pv         28.9138138        4.744699235        9.857285585 -7.739628e-03 -5.331603e-04 -5.555289e-03
       156      pv        13.70279277        15.60200549        -7.17421313  1.461202e-05 -2.375857e-03  2.265639e-03
       157      pv        14.38461624        16.81249232       -7.396007122  4.038280e-04 -6.986266e-04 -1.646271e-03
       158      pv        13.30039212        15.33542712       -8.139687933  1.955486e-02  2.894001e-02  1.736540e-02
       159      pv        12.89315644        15.71411097       -6.446122318  1.517763e-02  1.186502e-02 -2.895407e-03
       160      pv        14.37110852        14.76173437        -7.02189474 -8.742378e-03  1.373895e-03 -1.652843e-02
       161      pv        14.68456597        16.63364584       -8.323238821  8.695989e-03 -1.512207e-02  4.409027e-03
       168      pv       -4.853740202        16.23362968        15.79526302 -7.354560e-03  2.576167e-04  5.754839e-03
       169      pv       -4.752948974        15.40420467        16.99847896  5.392847e-03 -1.148886e-03 -7.433567e-03
       170      pv       -4.290606909        15.68981411        15.07373341  9.576528e-03  8.550416e-03 -1.111218e-02
       171      pv       -4.407950704        17.17817469        16.05665507 -3.093542e-02 -2.320093e-02 -3.143289e-02
       172      pv       -5.824517721        16.38896996        15.39578496  9.706810e-03 -3.453759e-03 -7.207514e-03
       173      pv       -4.149699202        14.63722671        16.77382505 -2.180279e-03 -2.573342e-02  1.132710e-02
       174      pv       0.7126241076        14.54289814        19.54903664  4.590332e-04  6.358097e-03  9.456347e-03
       175      pv        2.119614125        14.50346548        19.76192042  5.153569e-03 -1.789996e-03  6.358898e-03
       176      pv       0.1097740379        14.25759691        20.44480171  2.455498e-03  1.409246e-02 -7.724138e-04
       177      pv       0.3860614227        13.88884134        18.73761046 -1.050332e-02 -1.932769e-02 -2.466862e-02
       178      pv       0.5208045401        15.59691987         19.3556924 -1.024837e-02  1.190611e-02 -8.352435e-03
       179      pv        2.280144047        14.53311766        20.80090944  4.111710e-03 -9.068229e-03  1.348682e-02
       180      pv       -1.519572458        12.58414406        12.60687129 -6.326828e-03 -4.607354e-03 -3.932462e-03
       181      pv      -0.7890882979        11.61326387        12.01421899 -2.549826e-03 -1.550919e-03 -1.049998e-03
       182      pv       -2.266412856        12.16974386        13.27757916  2.134530e-02 -1.603668e-02 -5.610568e-03
       183      pv       -2.177992805        12.83517824        11.81791096 -9.960431e-03  2.109812e-02  2.295692e-02
       184      pv      -0.8781514794        13.38337594        12.98316302 -1.957715e-02  1.670303e-02 -1.634118e-02
       185      pv       -1.398434842        11.09770873        11.53047855  2.367459e-02 -1.424356e-03  5.496912e-03
       216      pv       -4.924786856       -2.758915687       -14.77203555  5.272232e-03 -3.845222e-03  3.041896e-03
       217      pv       -3.918453539       -2.045905113       -15.30609113  1.449738e-03  9.749255e-04  3.504969e-03
       218      pv       -5.546938609       -2.979703294       -15.56407983 -1.269761e-03  1.815096e-02 -2.146580e-03
       219      pv       -5.527841096       -2.196295682       -14.10402945  1.988481e-03  1.862535e-02  4.766641e-03
       220      pv        -4.54122722       -3.535260071       -14.15514172 -9.566354e-03 -2.030477e-03  1.199232e-02
       221      pv       -3.460331419       -1.690717698       -14.46782759 -1.348494e-02 -2.177787e-02 -2.095692e-02
       228      pv       -9.159120983       -6.853442463        9.289995573  4.988034e-03 -5.492659e-03 -9.623849e-03
       229      pv       -10.55746698       -6.732767962        9.426787855 -4.422893e-03 -1.994772e-03  2.523758e-03
       230      pv       -8.822903085       -7.376533927        10.20246627  6.140614e-04 -1.055081e-02  7.112351e-03
       231      pv       -8.690654287       -5.848117421        9.217082823 -7.210262e-03  3.433173e-02  2.314475e-02
       232      pv       -8.884727775       -7.575410796         8.55822805  1.362029e-03 -8.720603e-03 -1.977772e-02
       233      pv       -10.86474166       -7.396936102        10.07654367  1.158144e-02  5.325362e-03  1.115081e-02
       264      pv       -1.731743166        -1.20891642        21.35931967 -5.313246e-03  1.517629e-04  7.498038e-03
       265      pv      -0.4011013702       -1.564849499        20.90039827  5.480242e-03 -8.086260e-04 -2.463340e-03
       266      pv       -2.016421512      -0.2259025383        21.07225745 -7.420159e-04  2.595573e-03 -1.181545e-02
       267      pv       -1.732013319       -1.134278061         22.4607271 -2.402700e-02 -2.034266e-02  4.712552e-03
       268      pv       -2.508244155       -1.888094416        21.10492357 -2.649379e-02  3.903864e-03 -4.786461e-03
       269      pv      -0.4340879396       -1.640425216        19.94519851  1.441977e-02  1.264437e-02  1.308850e-02
       294      pv         18.4156702       -13.14964079       -16.97475895 -1.688671e-04 -3.761250e-03 -5.175560e-03
       295      pv        17.91858494       -11.86661633        -16.7516692  8.961194e-04  4.191415e-03 -6.238537e-03
       296      pv        18.83248026       -13.67442163        -16.1870342  7.809495e-04 -3.330167e-02 -2.588163e-03
       297      pv        19.09765622       -13.14538724       -17.81908468  1.145987e-02  7.504646e-03  8.252368e-03
       298      pv        17.47708587       -13.69722386       -17.25136682 -9.092649e-04  4.098457e-03  2.566293e-02
       299      pv        18.43817509       -11.66554397       -15.97619574 -7.425437e-03 -5.815115e-03 -5.145320e-03
       342      pv       -9.350344794         24.7005819        22.31210463  4.655010e-04  6.073097e-03  3.880061e-04
       343      pv         -10.540546        24.92211844        21.57096678  1.079883e-03  5.366637e-03  9.209975e-03
       344      pv       -9.040017199        25.62658927        22.73529411 -1.278600e-03 -1.862616e-02 -1.193622e-02
       345      pv       -8.501911091        24.48999059        21.61411543  8.448245e-03  2.428842e-02  9.629692e-03
       346      pv       -9.505172413        23.89545122        23.06681081 -1.306662e-02  1.690143e-02  5.838935e-03
       347      pv       -10.88366483         25.7926825        21.89288777 -1.324295e-02  1.114659e-02  3.168874e-03
       348      pv        2.353014247      -0.1117852343       -3.676032034  1.109748e-03 -1.401399e-03 -7.247181e-03
       349      pv        1.787088494      -0.4330651794       -4.949979065 -1.836128e-03 -3.232047e-04 -7.551445e-04
       350      pv        3.342200403       0.3299353627       -3.732784152 -2.480408e-02  4.819929e-03 -1.797342e-02
       351      pv        2.406720958       -1.063145874       -3.123019757  9.447399e-03  3.366882e-02 -1.867592e-02
       352      pv        1.746494882       0.7078307516       -3.169496886  3.461399e-02  1.595677e-02  6.456332e-03
       353      pv        1.719637412       -1.420383033       -5.083402129  2.027045e-02 -2.959897e-03  1.050664e-02
       354      pv        2.884933581        7.465311974         20.5747607 -3.953512e-03  2.206318e-03 -5.482342e-04
       355      pv         4.04435034        7.743941256        21.47705165 -7.733794e-03 -3.544001e-03  8.513313e-04
       356      pv        2.112597148        6.956233702        21.13625584  2.489154e-02  2.210033e-02 -4.657220e-03
       357      pv         3.23646439        6.804032046        19.78054469 -2.595913e-02 -1.635766e-02  2.998137e-03
       358      pv        2.576158237        8.483194042        20.21143421 -1.222054e-02  2.032771e-02 -3.796600e-03
       359      pv         4.44915723        6.904167156         21.8918162  6.216544e-03 -1.222316e-03 -1.463610e-02
       528      pv        -5.13063873        20.07099335        11.77135554 -6.984287e-03  3.247246e-04 -1.945737e-03
       529      pv       -5.410687236        19.17463879        12.88797684  4.565123e-03 -4.179977e-03 -4.183641e-03
       530      pv       -4.593361066        19.49290221        10.93242234 -6.183445e-03  8.816426e-05 -9.471104e-03
       531      pv       -4.607770628        21.00655643        12.12766949 -1.329035e-03  2.031495e-02  6.884000e-03
       532      pv       -6.147712212        20.31366034        11.45335612  8.139749e-03  8.391555e-03 -1.022093e-02
       533      pv       -5.239228501        18.23540196        12.48591523  8.542326e-03  2.597904e-02  6.332864e-03
        72      pv       -3.883640393        7.991223377       -6.988318626 -3.238821e-03  1.092436e-03  3.831810e-03
        73      pv       -3.511031937        7.917232054       -8.414220608 -1.554898e-03  2.202873e-03  9.984399e-05
        74      pv       -4.179614961        6.981005046       -6.715161488  2.823299e-02 -1.985169e-03 -2.600078e-02
        75      pv       -4.651417648        8.724146328       -6.798415703 -5.991622e-03 -3.537907e-02 -4.054588e-02
        76      pv       -2.939176614        8.311672217        -6.51704156  7.175726e-03  2.015017e-02  1.424990e-02
        77      pv       -2.576766897        7.684733507        -8.55079353 -9.327203e-03 -1.630480e-02  1.251876e-02
       240      pv      -0.5009408613       -10.59191024        15.22371713  9.216445e-05 -3.510061e-03 -3.045738e-03
       241      pv     -0.05297254633       -9.504151319        16.03750975  5.558177e-03 -1.111949e-03 -2.998839e-03
       242      pv       -1.523949343       -10.47120597        14.89465711 -1.842215e-02  5.002495e-03 -2.132539e-03
       243      pv      -0.4439607265       -11.46456548        15.83775003 -1.353447e-02  2.714016e-02  4.429927e-03
       244      pv       0.2555257677       -10.71720722        14.42641667  1.793951e-02  1.549811e-02 -1.374462e-02
       245      pv       0.9018118539       -9.518407381        16.00028094 -6.644222e-03  7.730289e-03  1.592140e-02
       276      pv       -1.352277853        1.270610576         10.6326742 -6.977801e-03  3.484529e-03 -1.388285e-03
       277      pv      -0.3785161828       0.2987161106        10.38976977 -6.227516e-03 -8.721366e-03 -5.946069e-03
       278      pv      -0.9959637778        1.990699447        11.26801006  1.887606e-02  5.742608e-03 -3.348160e-03
       279      pv       -2.190782711        0.665456112        10.95775282  1.404988e-02  1.718990e-02 -1.683892e-03
       280      pv       -1.635656175        1.708936643        9.669419944  2.455523e-03 -2.883532e-03  1.318454e-02
       281      pv       0.2370676764       0.4597329873        11.09824757  2.401062e-03 -2.375447e-03 -2.015449e-02
       360      pv        7.793871906        10.51897197       -6.952975381 -6.881241e-03  1.069533e-03  7.251127e-03
       361      pv        7.901547512        10.56170474       -8.254685007  2.050358e-03  5.448430e-03 -4.142227e-03
       362      pv        8.448253861         9.80037529       -6.504719618 -1.626311e-02  1.489829e-02 -6.817801e-03
       363      pv        6.751194551        10.30829329       -6.659750905 -1.177930e-03  2.261992e-02 -2.527175e-03
       364      pv        8.068151474        11.50390422       -6.442881053 -4.120268e-04  1.160180e-02 -3.602619e-02
       365      pv        7.304649307        9.860269859        -8.57657219  1.553715e-02  1.980153e-03 -3.930748e-03
       420      pv        25.57926204        8.758601548      -0.2436639027  1.432240e-03 -7.272473e-04  1.115559e-02
       421      pv        26.14935792        8.424210771       -1.508826909  5.224119e-05  4.330230e-03 -9.600569e-03
       422      pv        24.67042757         9.32725371      -0.3155041045  1.729282e-02 -7.501511e-03  7.930425e-03
       423      pv        26.28614364        9.297514272       0.4046747287  9.741240e-03  1.328002e-02  1.581319e-02
       424      pv          25.441911        7.760467087       0.2309155007 -3.612224e-02 -1.403956e-02 -1.968426e-04
       425      pv        26.11849932        9.105596423       -2.141428656 -1.853748e-02  3.868815e-02 -1.863972e-02
       444      pv        14.63559401        7.104375381       -1.359527704  7.811269e-03 -1.040471e-03  1.248270e-02
       445      pv        14.18543681        8.000898748      -0.3273539897 -3.517960e-04  6.259696e-03  1.036391e-03
       446      pv        15.49971699        6.501348304       -0.920530285  1.280780e-02  8.205095e-03 -6.734720e-03
       447      pv        14.87455161        7.575346965       -2.338972739 -1.290985e-02 -3.093993e-03  1.423291e-02
       448      pv        13.88770313        6.329969812       -1.624973158 -1.631064e-03  2.045805e-02  8.960822e-04
       449      pv        15.02030515        8.379071403      0.03714234676 -1.830507e-02  1.070084e-02 -2.321631e-02
       450      pv        17.40233937       -6.359370977        2.794718557 -3.331739e-03  5.136536e-04  1.652777e-03
       451      pv        16.97257409       -6.055071493        4.194702455 -3.440123e-04  2.051785e-03  2.660290e-03
       452      pv        18.54706089       -6.639669473        2.798379314 -1.417588e-03  2.005830e-02 -1.380808e-02
       453      pv        17.38221241       -5.525500523        2.137722708  1.415205e-02  1.680852e-02 -1.266007e-02
       454      pv        16.77769286       -7.154455757        2.466812816  1.478257e-04 -3.513980e-03  1.013177e-03
       455      pv        15.96628415        -5.88645485        4.214041151 -7.214216e-03 -1.287524e-02 -1.491595e-02
       462      pv        21.38250243       -16.96892868        12.62933805 -9.618265e-03 -2.127419e-03 -9.132829e-04
       463      pv        20.77472407       -18.19129666        12.25309568 -1.776784e-03 -4.957528e-03  3.491321e-03
       464      pv        20.56381263       -16.40618684        13.12797018 -9.853009e-03 -6.625033e-03 -1.729523e-02
       465      pv        21.85315422       -16.41000176        11.72796818  1.281050e-02  5.827195e-03 -1.933041e-02
       466      pv        22.15904742       -17.17372563        13.35096439 -3.354374e-02 -1.623804e-03  2.696663e-03
       467      pv        20.92188563       -18.79611069        13.04310484 -1.617022e-02  6.723811e-03 -1.112398e-03
       564      pv       -4.748647489       -3.650544192        8.333813094  3.379615e-03  4.425740e-03  5.765487e-03
       565      pv       -4.080077192       -3.377887094        9.551460921 -3.434001e-03  3.401538e-03 -2.711537e-03
       566      pv       -4.958267712       -4.676135632        8.303051727  2.118598e-04 -3.184895e-02  1.390020e-03
       567      pv       -4.187405438       -3.231966199        7.512874777  6.389904e-03  1.419222e-02  2.964527e-02
       568      pv       -5.623263617       -3.058893625        8.269247222  2.022313e-03  7.968231e-03  7.039467e-03
       569      pv       -3.208286259       -3.722447845        9.349964767  1.348426e-02  2.590237e-03 -2.034720e-02
       570      pv        8.056254295        5.635818227        18.12206195 -3.779062e-03 -9.090277e-03  9.788937e-03
       571      pv        6.822217512        5.180151447        17.69021337 -2.183212e-03 -5.997268e-03  7.163223e-06
       572      pv        7.920779714         6.26472136        18.96329901  8.278529e-03  1.076898e-02  2.338056e-02
       573      pv        8.495535441        6.262605162         17.3737743 -2.417538e-02  4.069303e-03  9.847739e-03
       574      pv         8.81237037        4.863928625        18.25711165  2.638295e-03 -3.043840e-02 -1.928218e-02
       575      pv        6.308504712        5.917183832        17.47890583 -1.973716e-03  2.480100e-03  1.184119e-03
       576      pv        11.65740885        20.18252044       -3.832623914 -5.250452e-04 -8.845042e-03 -1.153994e-03
       577      pv        12.76150645         19.3133454         -3.9768671  2.706040e-03 -5.751672e-03  1.937390e-03
       578      pv        11.99870773        21.11382632       -3.413474064  6.643823e-03  1.127308e-02 -1.520002e-02
       579      pv        10.95781996        19.68145952       -3.054062678  3.052772e-02  1.006340e-02  4.606871e-03
       580      pv        11.09044384        20.23397862       -4.762785056  1.176124e-02 -1.034229e-02 -1.602322e-02
       581      pv        12.97904376        19.41957094       -4.909298735 -5.732331e-03  1.493493e-02 -1.599780e-02
       582      pv        17.27193691        5.799561559       -11.94326208  4.493770e-03  5.821146e-03 -1.278910e-03
       583      pv        18.56593243        5.277940489       -12.18625874 -2.437056e-03  4.657013e-03 -1.872665e-03
       584      pv        16.67622337        5.101977538       -11.39139422 -1.335046e-02  1.301787e-02  1.642841e-02
       585      pv        16.72809601        6.006331071       -12.91308531 -4.414268e-02  1.898436e-03  4.734059e-02
       586      pv        17.37316759        6.741272393       -11.50072515 -1.250528e-02  1.041880e-02 -1.768741e-02
       587      pv        18.43084076        4.476351636       -12.76984097  4.466673e-02  1.490201e-02  2.001775e-02
       618      pv        22.31223613        -9.09664689       -16.16059919 -9.471569e-03 -5.506279e-03 -4.983101e-03
       619      pv        23.23348611       -8.765442778       -15.17286892 -2.612481e-03 -2.698413e-03 -1.471782e-04
       620      pv        21.95750503       -10.07963072        -16.0714819 -4.146798e-02  6.936628e-03  4.670944e-03
       621      pv        22.86085381       -8.984745159       -17.08057058 -2.399400e-02 -1.160986e-04  6.945676e-03
       622      pv        21.44626191       -8.463526007       -16.12438548 -5.517313e-03  6.479400e-03 -2.798287e-03
       623      pv        22.69627579       -8.693567059        -14.3048611 -3.215660e-02  1.062061e-02 -2.126305e-02
       624      pv        13.22443072        12.71354124        4.800018883  8.649801e-03  6.974978e-05 -2.381664e-03
       625      pv        14.20718218        13.29268217        4.013904185 -7.504260e-03 -2.050294e-03  6.925091e-03
       626      pv         13.6614485        12.34350471        5.760841246 -3.612293e-02  1.547142e-02  1.128258e-02
       627      pv        12.73909398        11.88761416        4.279042272  8.100252e-03  1.942298e-02 -7.276354e-03
       628      pv        12.52240436        13.51983075        5.053691987  1.178512e-02 -1.133360e-02 -1.123621e-02
       629      pv        14.01331084        12.96247523        3.064252243  3.872318e-03  5.920392e-03 -1.673274e-02
        42      pv       -7.756455442        4.083653042       -7.527476624  2.297004e-03 -4.820970e-03  3.372976e-03
        43      pv       -8.175905507        4.924295161       -8.671077206  3.791607e-05  4.653209e-03 -3.208578e-03
        44      pv       -8.351503349        3.159475741       -7.705558099 -3.613981e-02 -1.264640e-02 -2.816266e-03
        45      pv       -8.178180427        4.593483614       -6.521309477  2.266663e-02 -6.298846e-03  1.057789e-02
        46      pv       -6.660377009        3.800318571       -7.586263154  3.455729e-03 -1.616239e-02  8.205297e-03
        47      pv       -7.898907725        5.927352871       -8.505225208 -2.002433e-02  5.073359e-03  2.654393e-02
        66      pv      -0.1707972046       -10.95088271        29.79570921 -8.625769e-04 -1.224929e-02  2.451265e-04
        67      pv       -0.973631279        -11.9198254        30.44139027 -1.261246e-04 -5.307264e-03 -2.753675e-03
        68      pv      -0.7760158447       -10.49243643        29.05243348 -3.875330e-03  4.746150e-03  1.343358e-02
        69      pv       0.5159176418       -11.60061222        29.23866688 -1.451708e-03 -1.781214e-02  6.435903e-03
        70      pv       0.3453030881       -10.09867428        30.42281697  3.054309e-03 -2.450094e-03  1.341007e-02
        71      pv      -0.5044499593       -12.73466788        30.39492377 -2.481612e-03  1.190232e-02  2.003506e-02
        96      pv        3.820646511       -4.714103556        8.163391094 -3.967696e-03 -1.361246e-02  4.114547e-03
        97      pv        5.148783393       -4.515736998        7.811172383  7.399547e-03  2.522908e-03 -1.122738e-04
        98      pv        3.399000977       -5.312648112        7.307199835 -2.819436e-02  2.235473e-02  1.218897e-02
        99      pv        3.370529551       -3.686070651        8.220339305  9.898569e-03 -1.888396e-03  1.303581e-02
       100      pv        3.547125608        -5.34341201        9.062829194 -1.855168e-03 -8.387084e-03  6.456342e-03
       101      pv        5.735583171       -4.562353172        8.631125038  7.553255e-03 -2.476198e-02 -5.656304e-03
       132      pv       -9.134666541        8.640459013        5.822604811 -4.109389e-03 -4.345269e-03 -3.389584e-03
       133      pv       -7.787368627        8.762265626         5.72034002  2.117508e-03  1.252914e-03 -4.219384e-03
       134      pv       -9.374718393        7.547197843        5.879391653 -1.987333e-02  2.358741e-02 -1.010791e-02
       135      pv       -9.634857893        9.074287604        5.034200609 -1.193279e-02  1.032025e-02  1.521897e-03
       136      pv       -9.429238549        9.108851205        6.738129572 -9.171527e-04 -1.154082e-02 -9.610455e-04
       137      pv       -7.627364062        8.834913581        4.762210803  1.039501e-02  7.217750e-03 -5.471222e-03
       192      pv      -0.1289299882       -2.078229059        16.84160693 -5.566798e-04 -1.298036e-03  2.263203e-03
       193      pv      -0.4171393116       -1.396570241        18.00388416  4.320996e-04  1.024429e-04  1.252058e-03
       194      pv       0.7224365543       -2.756563408        17.01711371  4.727028e-03 -2.688208e-03 -1.749676e-03
       195      pv       0.1346905475       -1.382432778        16.14951924  3.117619e-02 -1.612647e-02  4.644874e-03
       196      pv      -0.9866720331       -2.755337872        16.58329307  8.941595e-03  1.083983e-02  2.568867e-02
       197      pv         -1.0342894      -0.7601924505        17.68951785  2.411356e-02  1.976458e-02  1.229681e-02
       252      pv        17.84643921         5.01378303        17.05190626  3.257658e-03  5.257830e-04  2.487598e-03
       253      pv        17.63914688         4.12736798         18.1697869 -2.142551e-04  9.511715e-03 -6.119382e-04
       254      pv        18.11999263        4.512081627        16.09979216 -4.377963e-03 -1.304416e-02 -1.279069e-03
       255      pv        18.58476476         5.84014005        17.36758223  2.186892e-02 -2.222732e-02  8.284729e-03
       256      pv        16.80172475        5.509943982        16.95259348  3.319679e-02 -2.542674e-02 -7.674637e-03
       257      pv        18.53538069        3.680100298        18.31121031 -1.329613e-02  1.544540e-02 -3.186241e-02
       306      pv        2.445354311       -8.445399269        12.64754231  2.354062e-03 -4.316013e-03  2.345012e-03
       307      pv        2.121577634       -7.600540889        11.63980056 -5.242300e-03  2.779005e-03  4.180340e-03
       308      pv        1.771574648       -8.137418457        13.54719014  1.046797e-02  9.091078e-03  1.478677e-02
       309      pv        3.408630316       -8.242383704        13.01674021  1.062320e-02 -1.884197e-02 -9.640156e-03
       310      pv        2.303417376       -9.567319266        12.46378393  8.900970e-03  1.155482e-02 -2.242702e-02
       311      pv        1.166226956       -7.485840519        11.69870556  4.350446e-02 -3.492810e-02 -1.417907e-02
       312      pv      -0.6436235077        14.32976176        9.576270692  1.299679e-02 -3.733446e-03 -6.272434e-03
       313      pv       -1.599419294        14.83152375        8.716308543  2.747348e-03  3.650154e-03 -1.883200e-03
       314      pv       0.1521652853        15.01081371        9.870062414 -1.359444e-02 -2.039990e-02 -9.138314e-03
       315      pv      -0.2374448873        13.45617706        9.078118099 -4.911107e-03 -4.343174e-03 -5.421194e-03
       316      pv       -1.117418896        14.07081622        10.62674816  4.074587e-05 -2.612015e-02  1.455479e-02
       317      pv       -1.245045903        14.70197466        7.801780732  1.173350e-02 -2.743204e-03  1.263112e-02
       318      pv        6.222094068       -1.762999408        5.854807464  1.721919e-03  2.678998e-03 -1.777437e-03
       319      pv        4.912704103       -1.677216753        6.249953996  6.758587e-03  1.602565e-03  4.169906e-03
       320      pv        6.813625491       -2.236337919        6.570978092  2.337639e-02  1.885553e-02 -1.624489e-02
       321      pv        6.611377745      -0.8006809336        5.683490806 -2.248950e-02 -3.606735e-03 -4.273310e-03
       322      pv        6.261081642       -2.413759081        4.954665115  4.998380e-03  3.955561e-02  5.038207e-03
       323      pv        4.801523092       -2.506529584        6.822450642  7.445023e-03 -2.458160e-02  8.376058e-03
       336      pv        11.01559653        16.28312555        17.36282156  4.249232e-03  5.208532e-03  6.272304e-03
       337      pv        10.47135532        16.66270771         18.6157138 -2.146620e-03  1.781733e-03  1.861315e-04
       338      pv        10.50558879        16.82386093        16.47133312  4.926645e-03 -2.855367e-02 -4.695345e-03
       339      pv        11.13377752        15.22816777        17.23486622 -8.979968e-04 -1.892621e-02  1.102010e-02
       340      pv        11.97337218        16.63217837        17.35937276  1.638701e-02 -9.943435e-03 -2.457556e-02
       341      pv        10.59661779        17.67130416        18.51834856  4.439351e-03  2.442112e-02 -8.701775e-03
       378      pv         5.95047617        1.480526587       -1.860782065  2.097251e-03  4.531008e-04  2.623098e-03
       379      pv        5.792156588        2.738656382       -2.465014304 -1.919973e-03  2.168738e-03 -1.076992e-03
       380      pv        6.720687946        1.546908969      -0.9878845571 -1.576891e-02 -2.425290e-02 -7.386946e-03
       381      pv        6.351140933       0.8437079584       -2.687631784 -1.195474e-02  1.387736e-02  4.394692e-03
       382      pv        4.995375068        1.058656603       -1.576233529 -2.786257e-03  1.753662e-02  2.687376e-02
       383      pv        6.397074645        3.325009769       -1.937537599  7.588016e-04 -3.774890e-02  5.366641e-02
       402      pv        2.233838376        11.15108874      -0.7140568555 -4.662924e-03  1.303526e-03 -1.919546e-03
       403      pv        3.150994161        12.26879159      -0.7424096279 -4.524664e-03 -3.604037e-03 -7.015373e-04
       404      pv        2.812607981        10.17340282       -0.541049385  2.281985e-02  3.570765e-03  9.820164e-04
       405      pv        1.670425976        11.12199804       -1.618743938 -1.875129e-02  6.892856e-03 -1.077862e-02
       406      pv        1.502474978         11.3336109      0.02768969523  6.447063e-03 -2.444314e-02  2.042329e-02
       407      pv        2.822527443        13.00391974       -0.271648412  3.151591e-02 -1.952136e-02 -3.009589e-03
       414      pv         18.6021881        15.95642993         5.19600997 -2.763213e-04 -2.318399e-03 -4.268025e-04
       415      pv        18.58945174        14.74155869         6.07362697  1.155558e-03  2.324412e-03 -5.965268e-05
       416      pv        18.72769952         15.7832213         4.13453014 -2.259344e-02  1.877267e-02  1.373427e-02