<OpenMD version=2>
  <MetaData>

molecule {
  name = "methanol";
  atom[0] { type = "CT"; position( -5.96684, 1.08283, -0.00928);}
  atom[1] { type = "OH"; position( -4.93201, 2.04823, 0.02864);}
  atom[2] { type = "H1"; position( -5.60539, 0.17925, -0.5063);}
  atom[3] { type = "H1"; position( -6.826, 1.48931, -0.54848);}
  atom[4] { type = "H1"; position( -6.26343, 0.83944, 1.01366);}
  atom[5] { type = "HO"; position( -4.68999, 2.24405, -0.89252);}

  bond { members(1, 5); }
  bond { members(0, 3); }
  bond { members(0, 2); }
  bond { members(0, 1); }
  bond { members(0, 4); }

}


component{
  type = methanol;
		nMol = 108;
}

forceField = "Amber";
ensemble = NVE;
electrostaticSummationMethod = "shifted_force";
electrostaticScreeningMethod = "damped";
cutoffRadius = 9;
dampingAlpha = 0.2;
targetTemp = 300;
tauThermostat = 100;
dt = 1.0;
runTime = 1e4;
tempSet = "false";
sampleTime = 10;
statusTime = 10;

## Last run using OpenMD Version: 2.3 Revision: 2055
  </MetaData>
  <Snapshot>
    <FrameData>
        Time: 10000
        Hmat: {{ 19.36269638, 0, 0 }, { 0, 19.36269638, 0 }, { 0, 0, 19.36269638 }}
  Thermostat: -0.0001642766318 , 0.1921611472
    Barostat: {{ 0, 0, 0 }, { 0, 0, 0 }, { 0, 0, 0 }}
    </FrameData>
    <StuntDoubles>
         0      pv       -8.327343427        -8.02307386       -6.759955381  4.117691e-03 -4.360198e-03 -4.258252e-04
         1      pv       -9.497502209       -7.650485341       -6.075663776 -1.388856e-03 -3.335471e-03 -1.640192e-03
         2      pv       -8.532377139       -8.402438969       -7.794325821  2.699738e-02  2.099674e-02  4.242513e-03
         3      pv       -7.697710751       -8.773782234       -6.137009915  3.272918e-02 -1.518802e-02  1.669003e-02
         4      pv       -7.780435802       -7.102309794       -6.967677007 -1.199366e-02 -2.358350e-02 -1.122242e-03
         5      pv       -9.245632601       -7.670237944       -5.149210721  8.838519e-03  1.113382e-02  6.897416e-03
         6      pv        2.649526635       -20.53715724        4.229841182  8.686500e-03  4.635066e-03 -1.954521e-03
         7      pv        2.374334852       -20.41726723        2.906549655  6.135253e-04  5.356583e-03 -4.044362e-03
         8      pv        2.180252927       -21.53121708         4.39011446 -2.293509e-02 -1.506595e-02  2.077345e-02
         9      pv        2.046826228       -19.75051259        4.729674968  1.898558e-03 -1.501946e-02 -8.535224e-03
        10      pv        3.671775441       -20.35502675        4.515106882  1.020633e-02  2.232475e-03  7.474849e-03
        11      pv        1.403913265       -20.65119425        2.750115237 -2.671612e-02  2.967790e-02  3.020517e-02
        60      pv        8.024904537       0.5656617733        10.84426207  3.422745e-03 -8.186765e-03 -4.772916e-03
        61      pv        8.792441565       0.8787360989        9.671371358 -8.840876e-03 -1.574024e-03  6.248631e-03
        62      pv        8.634285366       0.5799864418         11.6693638  1.838908e-02  5.260916e-03 -1.260444e-02
        63      pv        7.601597781      -0.4760218088        10.70768126  2.767234e-02 -3.275140e-02  2.441098e-04
        64      pv        7.026858805        1.231939727        10.88055709 -2.123905e-02 -3.835013e-02 -3.012437e-02
        65      pv        8.762445634        1.875596717        9.660229289 -2.730675e-03  1.580504e-03 -2.830465e-04
        72      pv        -3.98597763        8.224408104       -10.72297687 -1.004658e-02  3.280727e-03 -9.662228e-03
        73      pv       -3.415548304        8.099994662       -11.98481269  8.574930e-03  1.360681e-03 -2.992097e-03
        74      pv       -3.742649619        9.120524106       -10.12601907  8.731387e-03 -9.814524e-03  2.640138e-02
        75      pv       -3.594239533        7.371213755       -10.13910403 -1.702624e-02 -1.492284e-02 -2.407178e-02
        76      pv       -5.100965876        8.047332614       -10.74446483  4.215347e-03 -1.237948e-02  2.132761e-02
        77      pv       -4.039273077         7.40377326       -12.49827143 -4.783345e-03  1.352507e-02 -6.129645e-03
        96      pv        5.692039166       -3.710451558        9.474400017  4.782766e-03  3.091729e-03 -2.102950e-03
        97      pv        5.624758773       -4.259846723        8.135895923 -1.384606e-03 -2.937949e-04 -9.931757e-03
        98      pv        6.617213278       -3.894447146         9.85150952 -3.653718e-03  3.989886e-03  1.321446e-02
        99      pv        5.037138111       -4.230497127         10.2219155  7.061111e-03  9.712301e-03 -2.114166e-02
       100      pv         5.57694064       -2.539523978        9.456976377 -2.434382e-03 -1.359457e-02  1.629337e-02
       101      pv        6.522300634       -4.210753171        7.850289253  5.036624e-03 -2.906851e-03  2.743111e-03
       132      pv       -7.744304203         7.21959558        4.518436741  1.327589e-02  4.057485e-03  3.397898e-03
       133      pv       -7.550246696        6.347952387        3.363515549 -3.524226e-03 -6.317966e-03 -3.545352e-03
       134      pv       -8.058913855        8.176978622        4.098542198 -2.036116e-02 -1.204726e-02  7.160380e-03
       135      pv        -6.96529134        7.312222542        5.170038766 -5.950228e-03  3.096081e-03  1.916856e-02
       136      pv       -8.587319232        6.793976724        5.013570848  2.174510e-03 -4.888768e-03 -4.285957e-03
       137      pv       -7.365106215        6.876781071        2.574340443  1.764465e-02  1.942375e-02  1.039697e-02
       156      pv         12.9873864        18.93726188       -8.673707555 -1.799019e-03 -1.545605e-03  2.215072e-03
       157      pv        14.09317223        19.31099005       -9.479841204 -1.148965e-03 -5.588355e-04  3.894603e-03
       158      pv        13.22946314        18.78386304       -7.657313978  7.367172e-03  3.319412e-04  2.349313e-02
       159      pv         12.6000019        18.00176214        -9.11819508  1.258502e-02  1.544683e-02  1.682961e-02
       160      pv        12.19886021        19.78374257       -8.697870607  7.377417e-04  3.443953e-02 -6.555951e-03
       161      pv        14.09972768        18.65634574       -10.30680799  1.242530e-02  2.088209e-02  2.747807e-02
       168      pv      -0.7595646224        15.38824322        14.31783682  9.209304e-03  1.686300e-03 -6.317370e-03
       169      pv       -1.308781185        14.43673082        15.21761241 -6.213722e-03 -4.517157e-05 -2.500295e-03
       170      pv      0.04412496486        16.02171845        14.79305897  1.278036e-03  8.472734e-03  1.302691e-03
       171      pv       -1.441249825        16.02263392        13.98650764 -8.367523e-03 -2.431066e-02 -4.767835e-02
       172      pv      -0.4508028274          14.828092        13.44077963  8.480441e-03 -3.621204e-03 -4.786637e-02
       173      pv      -0.6037653366        13.92135281        15.66327419 -1.805365e-02 -1.926298e-02  4.600469e-03
       294      pv        19.18221938       -12.58523699       -17.82788209  1.418287e-02 -1.251895e-03 -2.317233e-06
       295      pv        19.89923315       -11.56151957       -17.25399701  7.129112e-03  7.835848e-04 -7.735708e-03
       296      pv        19.63989558       -13.53434065       -17.82806577  6.666517e-03  1.765284e-02 -2.869894e-02
       297      pv        19.10231642       -12.40042036       -18.84065895  5.302219e-03  1.567178e-02 -2.123584e-02
       298      pv        18.20340306       -12.53094739       -17.40387102  2.891906e-02 -1.983468e-02  1.911850e-02
       299      pv        19.77292112       -11.58898625       -16.26808122 -3.551638e-04  1.158390e-02 -3.798412e-04
       312      pv       -6.457543795        17.71362272        6.750119408 -5.396442e-03 -1.545599e-03 -1.993918e-03
       313      pv       -5.559304778        17.58487873         7.86680456 -1.780226e-03  1.951320e-03 -3.944475e-03
       314      pv       -6.999954599        18.60107149        6.850989675  5.809622e-03 -1.388986e-02  1.980032e-02
       315      pv       -7.131022175         16.9570652         6.80867431 -5.304935e-03  8.832767e-03  1.764388e-02
       316      pv       -6.000275011        17.73648415        5.815378035 -8.163187e-03 -7.736006e-03  8.815078e-03
       317      pv       -5.178245321        16.65146275        7.660926568  9.264984e-03  8.932516e-03  6.267561e-03
       426      pv        8.230596009        8.904590658        14.86559838  1.358278e-03 -3.312628e-03  1.546286e-03
       427      pv         8.13948002        9.078157276        16.26460012  2.723653e-03 -4.016963e-03  5.841968e-03
       428      pv        8.437262051        7.875293515        14.69793376 -2.195006e-02 -1.791569e-03  4.002889e-03
       429      pv        9.076212834        9.508604112        14.42908886  7.553290e-03  2.163965e-02  9.799866e-03
       430      pv         7.40930844        9.243695006        14.33145035  1.400970e-02  1.460071e-02 -1.182609e-02
       431      pv        8.359491481        9.989870339        16.57504694 -3.408193e-02 -3.851935e-03  6.301975e-03
       438      pv        2.715248027      -0.9223172809        7.910389227 -4.670680e-03 -1.114398e-03 -2.156638e-03
       439      pv        1.672865754       -1.695994605        7.518241052 -1.067851e-03  1.522905e-03 -2.171662e-03
       440      pv        2.568159602       0.1009815846        7.904041777 -7.211754e-03 -1.330152e-02 -6.985061e-03
       441      pv        3.624506112       -1.191821446        7.443932341 -7.151474e-03 -2.806286e-02 -1.490431e-02
       442      pv        3.004849934       -1.115255356        9.014646167 -2.364186e-02 -4.302643e-03  4.447051e-04
       443      pv        2.074809665       -2.582937643        7.400655898  1.313425e-02 -1.184252e-02  1.174930e-02
       468      pv      -0.1527370781       -1.928830536       -8.325217169  6.241189e-03  9.422291e-03  1.324690e-02
       469      pv       0.9545255137        -2.58760075       -7.719158733  5.946423e-03 -1.974800e-03  2.351659e-03
       470      pv     -0.09989933272        -2.17055131       -9.353231267  1.163693e-03  1.574437e-02 -1.518018e-02
       471      pv     -0.02124147594       -0.892048801       -8.188323604 -1.212350e-02  1.081721e-02  7.446421e-03
       472      pv        -1.10047399       -2.270770565       -7.907046341 -4.802379e-03 -4.086286e-02 -2.038057e-02
       473      pv        1.050359959       -2.115604788       -6.886937426 -3.023746e-02 -1.466940e-02  7.397414e-03
       528      pv       -2.201182217        20.05549441        9.984365643 -1.410311e-03  2.062559e-03  8.850843e-03
       529      pv       -2.785744407        19.04576299        10.85043771  2.498804e-03 -3.876639e-03 -5.386669e-03
       530      pv       -1.228763191        19.84187856        9.830320435 -6.569573e-03 -3.213061e-02  5.494854e-03
       531      pv       -2.280451212        20.97947738        10.47921766 -1.177820e-03  8.416060e-03  3.719172e-03
       532      pv       -2.712917701        20.12534817         9.05002769 -2.139341e-02 -2.501069e-02  7.710577e-03
       533      pv       -3.796196882         19.0694553        10.61152411  1.559408e-02  2.885545e-03  5.909565e-03
        18      pv       -12.12169926      -0.3356435373        -12.3560511 -5.461322e-03 -2.601212e-03  2.970295e-03
        19      pv       -10.96763121       -0.961139043       -11.73334456  5.777156e-03 -1.078148e-03  3.564968e-03
        20      pv       -12.11356862       0.6638184986       -12.03342404  6.608473e-03 -1.034045e-02  7.770091e-03
        21      pv       -13.02937733       -0.753196663       -11.84564636 -1.545299e-02 -1.263342e-02  1.198112e-02
        22      pv       -12.21496402      -0.4249197934       -13.44070402 -4.262830e-02 -1.718368e-02  9.614281e-03
        23      pv       -10.82574357       -0.277928899       -11.02303647  1.451540e-02  9.130787e-03 -2.944660e-02
        84      pv        28.94950273        4.143088333        4.149860301  4.700074e-03  9.499021e-04  8.088353e-05
        85      pv        30.30514468        3.887867658        4.465339214 -1.455640e-03  1.016815e-02  3.323743e-03
        86      pv        28.85954439        4.432181154          3.0443905  9.132206e-03  2.303741e-02 -1.535368e-02
        87      pv          28.506284        4.995272593        4.717710572  1.952832e-02 -1.299406e-02  2.135423e-02
        88      pv        28.40283456        3.208416639         4.37190446  1.836204e-02  8.706893e-03 -2.241719e-02
        89      pv         30.8407769        4.548255479        3.960031917  1.986492e-02 -2.335312e-02  1.799337e-02
       102      pv       -10.55354294        1.176651758      -0.9794961358 -8.082359e-03 -1.397617e-03 -3.524925e-03
       103      pv       -9.201485117        1.379310807       -1.579401771 -1.315164e-03 -5.503320e-03 -2.345572e-03
       104      pv       -11.29244605        1.491528879        -1.67332311  1.482994e-02 -3.833231e-03  6.865260e-03
       105      pv       -10.67642665        1.745823016     -0.03015442427 -1.820420e-02 -1.631900e-02  1.161277e-02
       106      pv        -10.6730644       0.1672125164       -0.729536431  1.598670e-02 -2.920717e-03 -2.009445e-03
       107      pv       -8.863455459        2.285246421        -1.28529468  5.973478e-03 -1.005402e-02  1.683831e-02
       108      pv       -11.12558354        13.11994533       -2.966705091  3.576080e-03  1.056274e-03  2.167212e-03
       109      pv        -11.2265635        11.75442149       -2.567408234  4.276304e-03  4.167184e-03  1.463927e-03
       110      pv       -10.09270567         13.4265126       -3.166131521 -8.494242e-03 -4.865542e-03  6.838656e-05
       111      pv       -11.51728455        13.79210605       -2.165588622  1.947751e-02 -1.272200e-02  2.094178e-02
       112      pv       -11.70357698        13.31114576       -3.884496049 -1.076681e-02  9.709705e-03  4.407993e-03
       113      pv       -11.84622006        11.66871457       -1.718987152 -6.658807e-03 -1.315091e-02 -1.312648e-02
       198      pv       -18.22844636        23.68696307        31.46610062  1.501880e-03  1.796776e-03 -5.400217e-03
       199      pv       -19.41303785        22.89494181        31.66727284 -5.270167e-03  6.106762e-03  3.566969e-03
       200      pv       -17.39936455        23.03672031        31.61057143 -5.040114e-03  3.111771e-02 -1.345892e-02
       201      pv       -18.07496901         24.5934689        32.05396286 -1.226059e-02  9.043889e-03  5.296921e-03
       202      pv       -18.08659957        23.94144159        30.45819205 -8.848328e-03 -1.199344e-02  8.120034e-03
       203      pv       -19.70807076        22.64868522        30.80691227 -2.061580e-04 -2.326748e-02  1.247603e-02
       264      pv       -1.292673073       -1.845738944        22.13169776  2.997483e-03  5.265755e-03 -3.695197e-03
       265      pv      -0.1889468598       -1.839498537        21.31405506  5.516737e-04  1.363245e-03 -7.097385e-04
       266      pv       -2.246461122       -1.584955292        21.65274152  1.727423e-03 -1.310033e-02 -3.143956e-03
       267      pv       -1.099904454       -1.239321111        22.96352908 -6.584734e-03 -2.124963e-02  1.211497e-03
       268      pv       -1.455747474       -2.776626674        22.53775276 -1.749718e-02 -8.654397e-03 -3.830041e-03
       269      pv      -0.5087985491       -1.581573744        20.44830596 -4.918235e-03 -7.880394e-04  1.893479e-02
       378      pv          5.3253434        6.556944335       -3.634067076  4.965738e-03 -1.917775e-03  3.699646e-03
       379      pv        4.533135333        6.603318602       -4.684298241 -1.738193e-04  3.787007e-03 -1.081865e-03
       380      pv        4.854754475        5.780048233       -3.087613066  1.858461e-02  4.189498e-04 -7.932045e-03
       381      pv        5.342849243        7.539082361       -3.264163277 -7.457861e-03 -1.168567e-02  7.535974e-03
       382      pv        6.349029517        6.281371408       -3.929108104  7.241787e-03 -6.550021e-03  7.500640e-03
       383      pv        4.359032909        5.687315608       -4.856929422 -1.786929e-02  3.900842e-03 -1.254443e-02
       414      pv        15.66157538        14.61255232        6.048973374  8.641513e-03  5.268284e-03  3.097441e-03
       415      pv        14.82365804        15.12603841         7.02272449 -2.361259e-03 -4.641921e-06  3.152511e-03
       416      pv        15.61648405        13.48405349        5.959506844  2.264580e-02  5.572442e-03  2.185286e-03
       417      pv        16.73467378        14.83487678        6.296503557 -4.828590e-03 -3.196125e-04 -8.763743e-03
       418      pv        15.39177349        14.97539209        5.050677401  2.211947e-02  2.078174e-02 -2.113979e-02
       419      pv         14.3068443        14.34702874        7.280296751 -1.851322e-02  2.336208e-02 -9.744919e-03
       492      pv        9.820834563         17.4980889        4.828317876 -1.591377e-03  4.706517e-04  5.328156e-03
       493      pv        9.593399301        16.66290945        5.998359492  6.616170e-03  1.338511e-02 -3.291980e-03
       494      pv        9.429840122        16.85947314        4.089003726 -1.406204e-02 -1.305775e-02 -1.933060e-02
       495      pv        10.91362964        17.54861134        4.669055032 -1.016459e-02 -1.823572e-02  3.394672e-02
       496      pv        9.300843253        18.45201129        5.029227601  8.664664e-03 -7.488358e-03 -1.240689e-02
       497      pv          9.2860667        17.31007437        6.694687787 -1.550701e-02 -9.490702e-03 -9.302662e-03
       510      pv        6.786056102       -3.633706646        -19.3441915 -9.414927e-04  1.836336e-03 -7.258869e-03
       511      pv        7.382972425       -2.503700736       -18.77504826 -2.308925e-03  1.293873e-03  1.200107e-03
       512      pv         5.72618968       -3.778959462       -18.92446057 -2.166195e-02  1.210671e-02 -4.192346e-03
       513      pv        7.366042649       -4.444221641       -19.24316982 -1.299803e-02 -1.978459e-02 -5.801505e-03
       514      pv        6.583957688       -3.483850245       -20.36944154 -1.560813e-02  6.686259e-04  9.271944e-03
       515      pv        8.306495831       -2.400002392       -19.18242505  1.269991e-02 -3.049749e-02 -4.412094e-03
       522      pv        15.24248656       -4.410050821       -9.165129619  3.615537e-03  9.973287e-03 -6.700236e-03
       523      pv        16.21067629       -4.650931603        -8.22862293  5.027598e-03 -8.841969e-04 -1.557993e-03
       524      pv        14.44995191       -3.797155439        -8.74860798 -1.020120e-02  1.382458e-03 -8.191575e-03
       525      pv        14.86224255       -5.388343153        -9.56608715  9.927368e-03 -4.067101e-02 -1.623117e-02
       526      pv        15.69800661       -3.913734166       -10.05257162  6.808721e-03 -1.549360e-02 -6.056731e-03
       527      pv        17.09690893       -4.840098229       -8.643890914 -7.034388e-03 -1.328735e-02  2.277664e-02
       540      pv        6.440281125        12.10849481        7.261575276  2.762469e-03  2.155879e-03 -2.998914e-04
       541      pv        5.228796466        11.45589477        7.769111715  3.048979e-03  4.360230e-03  4.880740e-03
       542      pv        6.220320572        12.77384399        6.414450565 -9.125686e-03  1.465945e-02 -1.249851e-02
       543      pv        7.206880131        11.41009536        6.987764711 -6.858792e-03 -1.142941e-02  1.834316e-03
       544      pv        6.741422112        12.78792674        8.130109378  8.330745e-03  2.940478e-02 -1.974174e-02
       545      pv         4.96729235        12.09044915        8.475984329 -7.635599e-04 -4.394596e-03  1.608706e-03
       552      pv        16.42656119        28.41728011        -18.9528691 -4.485025e-03  5.819903e-03  6.209710e-03
       553      pv        15.02533826        28.35701441       -18.90899725  5.341885e-04  1.706579e-03  2.946211e-03
       554      pv        16.93249383        27.71733833        -18.2292343  2.567192e-02  6.960229e-03  1.676980e-04
       555      pv        16.70255699        29.37890033       -18.59317258  1.398963e-02 -1.256118e-02  1.165914e-02
       556      pv        16.76410121        28.43440127       -20.04576857  6.415337e-03  9.540757e-04  1.789964e-02
       557      pv         14.7093279        28.88287171       -19.72766585 -9.616461e-04  5.879984e-03 -1.865788e-02
        30      pv       -7.076662787         14.5622193       -4.463184159 -3.225684e-03 -7.957600e-03 -6.256976e-03
        31      pv       -6.303392808         14.3114363       -3.305962246  5.177149e-03 -7.362928e-03  6.841078e-03
        32      pv       -7.450584155        15.49810969        -4.43394338  4.051405e-03 -1.431668e-02 -1.807845e-03
        33      pv       -7.897426628        13.86830084       -4.578560709  2.766246e-03 -2.863917e-02 -2.166088e-03
        34      pv       -6.374125399        14.41199218       -5.226594089 -1.064096e-02 -3.489409e-02  2.086364e-03
        35      pv       -5.462680984        14.91144988       -3.332207346  3.534239e-03  3.723712e-03  4.843072e-03
        36      pv       -1.191500431       -16.77501219       -13.71813616 -7.667327e-03  1.501544e-03 -8.001626e-03
        37      pv       -1.409521117       -17.21508914       -12.38559622 -5.209627e-03 -2.915465e-03  5.076838e-04
        38      pv      -0.8738963355       -17.61844472       -14.41252675  1.705378e-02  3.529776e-03  5.954571e-03
        39      pv      -0.4673554848         -16.066166       -13.77154362 -2.356485e-02 -2.872133e-03  1.172622e-02
        40      pv       -2.095078089       -16.33002905       -14.23500291 -8.461929e-03  1.961078e-02 -3.601896e-02
        41      pv        -1.15190594       -18.14638516       -12.36022027  8.883321e-03 -1.467143e-02  3.441902e-03
       114      pv       -3.108399158        10.04725071        24.17255525  8.709857e-03  2.322949e-03  1.842178e-03
       115      pv       -2.656734548        10.30663502        25.55190621  3.251418e-03  2.906663e-03  1.258889e-03
       116      pv       -2.473778321        9.407271194        23.61550422 -1.438821e-02 -2.425412e-02 -4.140935e-03
       117      pv       -3.127446077        10.98477471        23.68193833  5.010834e-03 -6.120141e-04  1.214523e-02
       118      pv       -4.154710404        9.580262596        24.09868148 -4.380902e-03 -2.500426e-02 -1.112376e-02
       119      pv       -2.977358596        9.460503213        26.02960429  2.301608e-02  4.555361e-03  1.180511e-03
       150      pv         4.64326275       -7.167756977        2.373935241 -5.096096e-03  7.305924e-03 -4.803194e-03
       151      pv         5.50105638       -6.363590847        1.588450584  5.928836e-03 -6.443441e-03 -1.686984e-04
       152      pv        4.277615927       -6.770196812         3.26950387 -7.196745e-03 -9.689137e-03  2.071474e-02
       153      pv        5.328817747       -7.964562878        2.770203756 -6.767671e-03  6.974546e-03 -5.115103e-03
       154      pv        3.883623754       -7.707386397        1.770886558  1.086860e-03  4.221868e-02 -1.524074e-02
       155      pv        5.993931716       -5.754432413        2.223237997  1.610998e-02  3.423853e-03 -1.464501e-02
       174      pv        2.702540502        14.98402881        20.64403177  2.825552e-04  3.456421e-03  4.423880e-03
       175      pv         1.57559304        14.72069604        21.49322123  2.062845e-03  3.389871e-03 -1.741432e-03
       176      pv        3.477024249        15.44444022        21.26334116  1.570650e-02 -4.498418e-03 -1.486938e-02
       177      pv        2.350442888        15.51115879        19.76428629 -2.575274e-02 -2.330006e-02  1.759723e-02
       178      pv        3.103093708        14.02899449         20.2845931  2.401679e-02  4.486609e-03 -1.990939e-02
       179      pv        0.990786685        15.49034923        21.29245405  1.288126e-02  1.122577e-02 -3.036752e-02
       186      pv       -14.03865804        3.650601013       -8.422343782 -4.336560e-03  5.527158e-03  3.737813e-03
       187      pv       -13.88701288        4.806398222       -7.670419623 -3.860045e-03 -1.959938e-03 -1.583817e-03
       188      pv        -13.0392596        3.306328267        -8.68731477 -2.170450e-02 -2.550083e-02  2.219717e-02
       189      pv       -14.73119997        3.980742398       -9.205515506  2.354048e-02 -3.352868e-03  7.213350e-03
       190      pv        -14.4906445        2.849388678       -7.906258161  1.809701e-02  1.845842e-02  6.049412e-03
       191      pv       -13.57394436        4.445536377       -6.799914903 -1.048476e-02  7.397990e-03 -1.321710e-02
       216      pv       -5.677354996       -2.248352793       -16.48704925 -6.295215e-03 -1.266813e-03  5.527843e-03
       217      pv       -5.294119536      -0.9241397233       -16.83981875 -5.672892e-03  3.923094e-03 -3.927867e-03
       218      pv       -4.876389263        -2.79497493       -15.96557292  1.682349e-04  6.169518e-03 -2.490577e-02
       219      pv       -6.008739237       -2.696425146       -17.50000766 -1.634620e-02 -2.431305e-02  1.390903e-02
       220      pv       -6.533746731       -2.096815068         -15.780341 -1.476691e-02  2.176449e-02  2.891868e-02
       221      pv       -5.549719111      -0.3442702513         -16.029624 -2.281599e-02  3.221444e-03 -1.949553e-02
       222      pv       -8.374383008        2.058646005        7.326810657  2.732346e-03  1.214498e-02  1.773416e-03
       223      pv       -7.793861394        1.863866306        6.090181767 -9.641432e-04  2.525835e-04  1.532882e-04
       224      pv       -8.058810452        1.242379764        8.011543694 -5.630890e-03 -3.262636e-04 -4.188096e-02
       225      pv         -9.4478549         1.92545424        7.206636118 -1.956502e-02 -1.347268e-02  1.011544e-03
       226      pv        -8.17393778        3.033872824        7.647642197 -2.736054e-03 -9.917575e-03 -7.898881e-03
       227      pv       -8.117680945         2.69373941        5.505984792  6.412659e-03  2.461964e-03  9.718624e-03
       252      pv        20.55695307        4.239112439        16.39566246 -2.709827e-03  1.439184e-02 -3.347859e-03
       253      pv         20.6882167        4.979442704        17.63486467  7.452439e-03  7.466219e-03 -4.898867e-04
       254      pv        19.97632237         3.33164286        16.56884285 -1.496385e-02 -2.491127e-02  2.872870e-04
       255      pv        21.54471301        3.853448341        15.92180094 -1.369818e-02 -1.371987e-03 -2.474007e-02
       256      pv        20.00301907        4.721525861        15.65114495  4.030927e-03 -2.744022e-02  2.893146e-02
       257      pv        20.90172931        4.300997095        18.30843547  3.533038e-02 -2.612177e-02 -6.699116e-03
       282      pv       -8.866458568        5.095040123        11.17576833  1.219928e-03  2.181971e-03  2.856626e-03
       283      pv       -9.737856092        5.738559276        10.37883573  8.608281e-03 -4.195223e-03  6.868018e-03
       284      pv       -8.160454961        4.380682959        10.78384213 -1.011239e-02  9.368405e-03 -2.656173e-02
       285      pv       -9.258037825        4.717150252        12.21476699  1.079105e-02  1.606157e-02 -2.107466e-02
       286      pv       -8.179929589        5.869751198        11.41575844 -1.379852e-03  3.451485e-02 -6.080231e-03
       287      pv       -10.16633698        6.500457771        10.87572465  3.129908e-02  1.318847e-03  4.031166e-03
       300      pv        2.902806533        7.296126105      -0.2516515938  4.176402e-04 -1.109401e-02 -4.696308e-03
       301      pv        1.930103577        7.539800187       -1.243068457 -8.302027e-03 -2.239132e-03 -4.391591e-03
       302      pv        2.354453709        7.009265595       0.6204342362  1.001573e-02  1.141638e-02  6.940109e-03
       303      pv        3.582747815        8.261741847      -0.1805524388 -2.274282e-02  4.226222e-03 -1.390004e-02
       304      pv        3.515688088        6.460506368      -0.5789203526 -6.457460e-03  1.342273e-02  2.604180e-03
       305      pv        1.676755157        6.590616356       -1.524936771 -2.634349e-03  2.171182e-02 -8.004318e-03
       324      pv        19.09954546        9.910695513        8.364580261 -9.214608e-04  3.985776e-03  6.277567e-03
       325      pv        18.98676284        9.363559631        7.110651867  5.003972e-04  2.882933e-03  3.952482e-03
       326      pv        18.89333593        11.01663965         8.37418658  1.570878e-03 -9.719999e-03 -5.811729e-03
       327      pv        20.09693188        9.815453705        8.636607084 -7.772679e-03 -3.163822e-04 -1.049027e-02
       328      pv        18.41597688         9.48514488        9.106965345 -1.754007e-02  1.208417e-02  2.637060e-02
       329      pv        18.20370879        9.783099289        6.669237095 -3.824570e-03 -6.619880e-03 -5.031317e-03
       336      pv        11.20991883        16.68398732        18.82092032  1.840894e-03 -1.039522e-02 -3.336737e-03
       337      pv        9.905304972        17.16086667        18.55487003  1.067487e-03  1.974163e-03 -1.623247e-03
       338      pv         11.7783813        17.58896392        18.80434182  1.368951e-02 -8.233417e-04 -5.562033e-03
       339      pv        11.46543281        15.93634424        18.10035566  4.081896e-03 -6.076338e-03  1.945190e-03
       340      pv        11.26688473        16.29534716        19.81848868 -2.057961e-02 -5.689699e-03  6.942818e-03
       341      pv        10.08762248        17.58306455        17.71045489  1.627177e-02 -7.313799e-03 -1.319242e-02
       348      pv        4.785621297       -4.412829122       -2.970375335 -7.297813e-03  5.089505e-04  1.151629e-02
       349      pv        4.680242042       -3.102610298       -2.606680773  3.186971e-04 -8.794973e-04  1.585045e-03
       350      pv        4.280054639       -4.525675061       -3.909295499 -5.553352e-03 -1.906476e-02 -4.262169e-03