<OpenMD version=2>
  <MetaData>

molecule {
  name = "methanol";
  atom[0] { type = "CT"; position( -5.96684, 1.08283, -0.00928);}
  atom[1] { type = "OH"; position( -4.93201, 2.04823, 0.02864);}
  atom[2] { type = "H1"; position( -5.60539, 0.17925, -0.5063);}
  atom[3] { type = "H1"; position( -6.826, 1.48931, -0.54848);}
  atom[4] { type = "H1"; position( -6.26343, 0.83944, 1.01366);}
  atom[5] { type = "HO"; position( -4.68999, 2.24405, -0.89252);}

  bond { members(1, 5); }
  bond { members(0, 3); }
  bond { members(0, 2); }
  bond { members(0, 1); }
  bond { members(0, 4); }

}


component{
  type = methanol;
		nMol = 108;
}

forceField = "Amber";
ensemble = NVE;
electrostaticSummationMethod = "shifted_force";
electrostaticScreeningMethod = "damped";
cutoffRadius = 9;
dampingAlpha = 0.2;
targetTemp = 300;
tauThermostat = 100;
dt = 1.0;
runTime = 0.5e4;
tempSet = "false";
sampleTime = 100;
statusTime = 10;

## Last run using OpenMD Version: 2.3 Revision: 2055
  </MetaData>
  <Snapshot>
    <FrameData>
        Time: 5000
        Hmat: {{ 19.36269638, 0, 0 }, { 0, 19.36269638, 0 }, { 0, 0, 19.36269638 }}
  Thermostat: -0.0001642766318 , 0.1921611472
    Barostat: {{ 0, 0, 0 }, { 0, 0, 0 }, { 0, 0, 0 }}
    </FrameData>
    <StuntDoubles>
        30      pv       -8.872929913        11.71139049       -5.456996489 -1.022277e-03  8.696008e-04  1.750043e-04
        31      pv       -7.636481011        12.48143789       -5.318936559  3.994814e-03  1.118371e-02  2.527459e-03
        32      pv       -8.813651751        11.02027813       -6.322675138  8.282428e-03 -1.298426e-02 -2.707754e-03
        33      pv       -9.667780968         12.4556455       -5.787422112  8.798792e-04 -2.256770e-03  1.371166e-02
        34      pv       -9.112508045        11.20520357       -4.551739676 -1.235886e-02 -4.015697e-02 -1.305716e-02
        35      pv       -6.852021558        11.91180577       -5.145039285  1.088973e-02  2.455427e-02 -8.429000e-03
        84      pv         29.7595103        4.565544132         8.17049104  4.107667e-03  5.538020e-03 -3.405533e-04
        85      pv        28.98324346        5.527945856        8.746297168  6.434776e-03 -3.100106e-03  4.663277e-03
        86      pv        30.07441318        3.832519403        8.913230072 -1.350122e-02  8.889581e-03  9.771384e-03
        87      pv        30.66182727        5.087559533        7.892843557  1.840680e-02  3.182619e-03  1.423534e-02
        88      pv        29.27215654        4.143708534        7.235728606 -1.233376e-03  1.458082e-02  1.565136e-02
        89      pv        29.54397194         5.93011593        9.404479929 -2.842285e-03  1.933695e-02  4.202843e-02
       156      pv        12.50328198        13.15908866       -8.890875273  7.896709e-03  6.726598e-03 -3.460903e-03
       157      pv        13.64153502        13.76507333       -9.485636103 -3.733955e-03 -2.817946e-03  6.242602e-03
       158      pv        12.47559786        13.34655076       -7.749546222 -2.260782e-03  3.539309e-02 -6.579427e-03
       159      pv        12.42494085        12.10230703       -9.115867651 -1.284644e-02  1.785789e-03  1.577192e-02
       160      pv        11.59695509         13.6703283       -9.447246957 -2.687372e-02  2.336384e-03  1.872505e-03
       161      pv        13.73196337          13.445057       -10.49309077 -1.641426e-02  1.377931e-02  3.824883e-03
       168      pv        -4.40652962        12.50441419        14.52171568 -4.110038e-04 -4.847575e-04  2.275349e-03
       169      pv       -5.216447512        11.30383103        14.38305271 -6.101696e-03 -7.923708e-03 -5.477995e-03
       170      pv        -3.99963211        12.98532722        13.55164042  2.437040e-02  6.278719e-03 -9.608751e-03
       171      pv       -3.492291702        12.20964799        15.22548567  1.029177e-02  1.450741e-02  1.318701e-03
       172      pv        -4.96178625         13.2922806        15.15777344  1.411414e-02 -1.312461e-02 -1.198010e-02
       173      pv        -4.59568909        10.58763518        14.35705017  1.146773e-03 -2.660386e-02 -2.062837e-02
       174      pv        2.862564555        14.82677225         19.2203857  5.154467e-03 -1.845540e-03  1.966483e-03
       175      pv        3.049218191        13.44927679         19.6429337  3.101055e-03  1.286064e-03 -7.678963e-03
       176      pv        2.330119585        15.44043288        20.03915494  1.648967e-03 -1.539200e-02 -1.471955e-02
       177      pv        2.171683028        14.88383341        18.29167008 -1.880923e-02 -1.034928e-02 -3.780826e-02
       178      pv        3.847218321        15.18092551        19.03672375  2.358819e-02 -1.139254e-02  5.962700e-03
       179      pv         3.22414621        13.45614191        20.66551333 -3.095590e-03  8.454829e-04  5.883151e-03
       180      pv       -1.135038659        11.78169333        11.86053768  3.774319e-03  3.857885e-03 -1.763553e-03
       181      pv      -0.6392173823        11.58741266        10.52843378 -2.191099e-03  1.962458e-03  6.965589e-03
       182      pv      -0.4587405259        12.23794663         12.4782338  3.177827e-03 -1.594128e-02  3.397751e-02
       183      pv       -1.233110188        10.76609904         12.2057645 -1.028444e-02  1.246533e-02  7.128029e-03
       184      pv       -2.099571874        12.24467858         11.8136101  4.239783e-03  2.091899e-03 -4.796978e-02
       185      pv       -1.459831007        11.66056224        9.908961515  1.077188e-02 -3.849075e-03 -3.097745e-02
       216      pv       -4.987585599        -1.81751865       -13.73952594  1.360834e-03  7.443942e-03  1.957558e-03
       217      pv       -3.968760803      -0.9184615067       -14.18309144 -1.172328e-02 -3.394720e-04  6.034693e-04
       218      pv       -4.764485843       -2.514844766       -12.88380083 -3.753038e-03  2.038244e-02  2.087070e-03
       219      pv       -5.191188061       -2.493224535       -14.55141945  2.922516e-03 -1.103580e-02  3.059464e-02
       220      pv       -5.848405784       -1.183788173       -13.58557647  1.529561e-02  6.093648e-03 -2.070456e-02
       221      pv       -3.417539762      -0.6742898396       -13.37257718  3.248628e-03 -4.299429e-04  1.128653e-02
       228      pv       -8.999405643       -8.290454621        8.651504902  1.316617e-03  6.631866e-03  8.565512e-03
       229      pv       -9.613139398       -7.070673053        9.016091258 -2.281887e-03  7.250203e-04 -4.482391e-03
       230      pv       -8.390249722       -7.958281738        7.818660036 -1.179034e-02  3.533076e-04 -7.825360e-03
       231      pv       -9.768980057       -9.000348301        8.416002009 -2.145003e-02 -1.163091e-02 -5.200398e-03
       232      pv       -8.282280024       -8.611675268        9.287758372 -3.559470e-02 -7.873149e-04  1.287221e-02
       233      pv       -10.27441376       -7.294871554        9.648466943 -3.679287e-02 -1.348807e-02  7.106175e-03
       264      pv       -1.273724218      -0.4104155721        22.67137723 -4.232242e-03 -5.995867e-03 -4.424539e-03
       265      pv      -0.6790238234       -1.495937911         21.9738578 -5.705933e-03 -1.987768e-03 -5.096827e-03
       266      pv      -0.8529979904      -0.3786927715        23.73049052 -1.071841e-02 -5.668163e-03  1.875613e-02
       267      pv       -2.334226638      -0.4206839214        22.67046488  6.041143e-03  2.997860e-03  2.234316e-02
       268      pv      -0.9118876828       0.5044919365        22.18872713  7.413783e-03 -3.976749e-03  1.888004e-03
       269      pv      -0.8001874638       -1.314224546        21.05201289  2.061873e-02  2.466941e-02 -3.923114e-02
       294      pv        15.14304947       -12.30697851       -15.17768384  2.461145e-03  2.553708e-03 -6.814733e-03
       295      pv        15.91694128       -13.43881948        -15.6701048 -5.699291e-04 -2.665922e-03  1.143704e-03
       296      pv        15.10769361       -12.30293073       -14.09327057  2.313841e-03  2.608199e-04 -1.599102e-03
       297      pv        14.14048572       -12.34170925       -15.61152148 -1.065926e-02 -2.183025e-02  2.655350e-02
       298      pv         15.7422355       -11.38056756       -15.51178475  1.870122e-02  1.366606e-02 -1.947994e-02
       299      pv        16.71013435        -13.5373283       -14.98098542  8.526721e-04  5.526465e-03  1.642871e-02
       342      pv       -12.49803462        24.40056034         21.7727741 -2.206807e-03 -1.222689e-03  6.368501e-03
       343      pv       -12.97016488         25.6046286        21.37800007 -8.727284e-04 -5.018856e-03 -3.706378e-03
       344      pv        -13.2854855        23.65126312        21.86058737  1.025241e-02 -8.425484e-03 -2.018581e-03
       345      pv       -11.83986542        24.57994917        22.67678189  3.466913e-03  1.319382e-02  1.055344e-03
       346      pv       -11.80660984        24.05305363         20.9348637  1.073742e-02  1.460067e-02  3.460781e-03
       347      pv       -12.49442768        26.24554207        21.98487716 -2.304017e-03  1.765952e-02  3.878431e-02
       348      pv        6.404481423       -2.922388793       -7.567911999  2.713031e-03  2.778830e-03 -1.402510e-03
       349      pv        5.121079633          -2.934255       -8.096212187  4.311854e-03  1.551329e-03  1.112890e-03
       350      pv        6.783471065       -3.909599417       -7.424606868  2.989519e-02  4.610689e-03 -1.605432e-02
       351      pv         6.37291611       -2.263853216       -6.621597742  1.155511e-02 -7.609736e-03 -5.958162e-03
       352      pv        7.160575703       -2.394563521       -8.307125296 -5.562669e-03 -2.684425e-02  8.084155e-03
       353      pv        4.455314135       -3.121707362       -7.434783895  2.766719e-03  1.293723e-02  1.296594e-02
       354      pv       -1.112064514        6.598105133        20.84822582  4.210477e-03 -2.889103e-04 -3.987900e-03
       355      pv       -2.399872169        5.813606275        20.60750238  1.266540e-03  6.867123e-03 -7.183615e-04
       356      pv       -1.351961555        7.544065795         21.0648306  7.095106e-04 -2.327068e-02  2.956854e-02
       357      pv      -0.4434202035        6.619541695        19.94425593 -5.034454e-03  1.707527e-02  9.128009e-03
       358      pv      -0.4784278982        6.128538416        21.59543059  6.452900e-03  1.090308e-02  2.716207e-02
       359      pv       -2.828660584        5.763882333        21.51049181  1.065838e-02 -5.591619e-03  9.144397e-04
       528      pv        -6.61545945         16.9395377        10.09135779 -1.870047e-03 -2.137273e-03 -1.982947e-04
       529      pv       -5.563522773        16.36258471        10.97017584  4.784901e-03  2.619073e-03 -6.977723e-03
       530      pv       -6.752631986        17.93792718        10.42321367 -1.424118e-02 -1.028903e-02  5.572467e-03
       531      pv       -7.562717519        16.43856324        10.27903113  3.376189e-03  5.414192e-04 -2.148198e-02
       532      pv       -6.354120739        16.88178764        9.008113428 -8.738488e-03 -1.280609e-02  1.524728e-03
       533      pv        -5.39269403        15.44127277        10.58697138  2.985702e-02  8.744672e-03  2.633511e-02
        72      pv       -4.263630131        5.339677172       -8.192598345  1.490864e-03  2.983810e-03  4.478184e-04
        73      pv       -3.744416667        6.477249938       -8.929813189 -4.811113e-03 -7.926844e-04  4.955808e-03
        74      pv        -3.67242912        4.393791622       -8.386341853 -1.512513e-02 -1.877585e-02  7.219330e-03
        75      pv       -5.216404336        5.258483175       -8.636315593 -1.431130e-02 -1.034193e-02 -1.725231e-02
        76      pv       -4.629600317         5.51695851        -7.20124471 -1.253080e-02  1.388286e-02  1.431332e-02
        77      pv       -2.742185862        6.725212711       -8.803727396  1.657503e-03 -1.352861e-02  1.845860e-02
       240      pv       -2.763566358       -11.00264032        13.53997554 -2.138478e-03 -4.352734e-03  1.279237e-03
       241      pv       -3.005934717       -10.11763315        14.56756889  4.335140e-03 -1.205370e-03  2.130577e-03
       242      pv       -1.961352664        -10.6613204        12.78941264 -9.753171e-03 -2.009874e-02  5.609028e-03
       243      pv       -3.658828695       -11.15132477        12.99132526 -4.231915e-03 -1.297298e-02  7.025665e-03
       244      pv       -2.347835071       -11.93461988          13.959203 -5.436162e-03  8.140994e-03  1.713704e-02
       245      pv        -2.13285586       -9.949284093        15.05726161 -4.341915e-02  1.558736e-03 -6.922169e-03
       276      pv       -2.376693617       0.1396922251        13.98751452  5.251678e-03 -1.724099e-03 -8.073234e-04
       277      pv       -1.393516381      -0.9035056696        13.86839945 -1.439408e-03 -1.931745e-03  3.222539e-03
       278      pv       -2.510753293       0.7281753535        13.07933258 -3.136225e-02 -1.002302e-03 -2.035785e-02
       279      pv       -2.080664515       0.8493202096        14.65465899 -2.197104e-02  7.900957e-03 -2.566214e-02
       280      pv        -3.43303284      -0.3145002435        13.99444951  1.763964e-02 -1.110016e-02 -6.532136e-04
       281      pv      -0.5779241717      -0.4857412795        14.31306566  1.499360e-02 -6.090829e-03 -2.658618e-03
       360      pv        6.056288763         11.9695354       -8.206258621  3.948647e-03  5.197031e-03 -1.517557e-03
       361      pv        7.530188426         12.1009218       -8.004990504  6.338785e-03  1.531901e-03 -3.975012e-03
       362      pv        5.537018469        12.55546792       -7.389437086  1.279778e-02 -4.103447e-02 -4.933277e-03
       363      pv        5.834199789        10.86560676       -8.040142374  1.119968e-02 -1.984129e-03 -1.309079e-02
       364      pv        5.787184947        12.31200775        -9.26627695  7.376245e-03  1.659424e-02  4.523451e-03
       365      pv        7.852343535         11.3478471       -7.526415891  2.377159e-02  1.492571e-02  1.465471e-02
       420      pv        25.68238086         9.38973395       -0.498156351 -4.923257e-03 -2.220859e-03 -9.595916e-03
       421      pv        25.33254518        9.147900313       -1.926049162 -6.532108e-04  2.114404e-03  1.639249e-03
       422      pv        25.68498287        8.465729965       0.1449940509 -1.495442e-02  1.556608e-02  2.717114e-03
       423      pv        24.96288166        10.17716321      -0.1405541986 -1.308186e-02 -4.855946e-03 -2.376588e-02
       424      pv        26.64845864        9.880156521      -0.4529737708  8.784105e-03 -9.815701e-03  5.878275e-03
       425      pv        25.59326071        9.958642541       -2.351845716  2.470316e-02  2.583083e-03 -7.990877e-03
       444      pv        14.15378826        9.656225422       -1.854114502 -5.529000e-04 -2.056873e-03 -7.590771e-04
       445      pv        13.82607351        8.768102704       -0.739581052  1.745605e-03 -3.610563e-03 -4.278775e-03
       446      pv        15.07627266        10.08437207       -1.721329838 -1.521002e-02  9.829800e-03 -2.027775e-02
       447      pv        13.31056973        10.48813824       -1.893613802  8.165852e-03  1.237166e-02  4.374008e-03
       448      pv        14.20608678        9.016330843       -2.758023795 -2.411590e-02 -6.162009e-03 -9.283152e-03
       449      pv        14.62613134        8.197649189      -0.6692304884  1.427649e-02  3.066713e-02 -2.665454e-03
       450      pv        19.07385963       -7.346626862        2.046391577  4.741965e-03 -1.949067e-03 -2.745429e-03
       451      pv        18.36149554       -7.487341462          3.2745061 -2.408305e-03 -3.099210e-05  1.926874e-03
       452      pv        19.79507434       -8.124380918        1.864753256  3.411513e-03 -5.749478e-03  2.399266e-02
       453      pv        19.63782077       -6.445023888        2.089601896 -1.917966e-02  3.591519e-02 -9.879086e-03
       454      pv        18.34910092       -7.436300733        1.212262612  1.153442e-02  1.167586e-02  1.293700e-03
       455      pv        17.34263954       -7.663288163         2.98900921 -1.242646e-02 -2.331791e-02 -9.980029e-04
       462      pv        20.69357254       -17.64395664        14.44876832 -4.152457e-03  5.717158e-03  1.056167e-03
       463      pv        20.16287245       -18.90262411        14.89233944  7.548602e-04  4.834364e-03 -1.652839e-03
       464      pv        21.22377014       -17.79559193        13.53962989 -2.804845e-02 -1.604693e-02  1.787329e-02
       465      pv        21.44207075       -17.22022626        15.11359043 -1.355992e-03 -6.863729e-03  1.807842e-02
       466      pv        19.89074586       -16.83458193        14.26726267 -1.484550e-02  1.766818e-02  2.885707e-02
       467      pv         20.8862599        -19.4600357        15.20839312  4.617554e-03  2.129105e-03 -9.197637e-03
       564      pv       -5.876485268       -6.613377427        6.144256158 -1.215117e-03 -1.138081e-03  4.186641e-04
       565      pv       -5.023222865        -6.55875622        7.314309903 -5.062304e-05 -2.287139e-04 -3.918249e-03
       566      pv       -5.430840981       -6.290183952        5.206218678  1.230673e-02 -2.317243e-03 -2.369058e-03
       567      pv       -6.752094421       -6.130507933        6.401934322 -3.570408e-02 -2.563541e-03 -9.761662e-03
       568      pv       -6.088955001       -7.665883593          5.9242132  5.235743e-03 -9.948773e-03  4.983998e-03
       569      pv       -4.452759357       -5.727493669        7.189728087  5.079642e-02  3.878342e-02 -8.331889e-03
       570      pv        6.317947649        5.698410616        18.31537877 -3.533761e-03 -6.391257e-03 -5.629049e-03
       571      pv        5.552728069        6.194883907         17.1611168 -3.180665e-03 -1.888378e-03  2.707804e-03
       572      pv        6.835059948        4.902299682        18.06823741  7.488837e-03  8.808982e-03  9.431877e-03
       573      pv        5.624051676        5.461998664        19.04000119  4.739274e-03 -1.457972e-03 -1.683563e-03
       574      pv        6.986018486        6.542406925        18.66895937 -4.628069e-03 -3.070552e-02 -1.220050e-03
       575      pv        5.388839008        7.161667845        17.41052813 -2.107906e-02 -4.023610e-03  2.618772e-02
       576      pv        13.38992514        16.29146746       -5.209631515 -1.687742e-02 -4.771514e-03 -4.301787e-03
       577      pv        14.64943751        16.67724556         -5.8167039  1.195156e-03 -6.985844e-04  4.433206e-03
       578      pv        13.51431192        16.31044644         -4.0826502 -1.404965e-02  3.157233e-02  1.421146e-02
       579      pv        13.26576771        15.21378946       -5.352186088  3.837197e-04  2.714771e-02  1.692829e-02
       580      pv        12.54111052        16.86980952       -5.683885227 -1.245112e-02  3.207216e-02  5.504862e-03
       581      pv        14.51916456        16.64300601       -6.827093826 -1.934594e-02 -2.597868e-02  1.920877e-02
       582      pv        18.34232037        3.792092454       -9.748600854 -2.085328e-03  2.664923e-03 -2.885390e-03
       583      pv        19.70028209        3.862889864       -10.28208459 -3.573933e-03 -3.860638e-03  2.929858e-03
       584      pv        17.73384835        4.688995609       -10.17419849  2.291644e-02 -3.755858e-03  2.559036e-03
       585      pv          18.442212        3.782486989       -8.715633123  9.317098e-03 -3.876000e-02 -1.136578e-02
       586      pv        17.91725246        2.811129163       -10.04236933  1.453958e-02 -2.360574e-02  2.032816e-02
       587      pv        19.51749351        3.821616154       -11.21362333 -3.580634e-02 -5.288258e-03  2.863412e-02
       618      pv        21.34667896       -9.482862171        -15.1848511  2.587108e-03  7.325769e-05  6.408379e-03
       619      pv        22.62782893       -9.001139596       -15.72945384 -2.992253e-03  4.098500e-03  6.297378e-04
       620      pv        20.73277744       -9.657606559       -16.00554665 -1.420944e-02  1.009876e-02  3.497227e-03
       621      pv        20.91487855       -8.648706563       -14.52297962 -6.776567e-04 -2.466494e-03 -1.566123e-02
       622      pv        21.38729491       -10.47248346       -14.69874419 -8.675642e-04 -1.803649e-02  2.829872e-03
       623      pv        23.07429104       -8.737442305       -14.89026568 -4.164407e-03  2.147600e-02  2.132537e-02
       624      pv         11.6506799        15.27963183        2.490655221 -3.318125e-03  1.930879e-03  2.192194e-03
       625      pv        12.58314832         14.5517354        3.186733784 -3.412369e-03  4.243456e-03 -9.467821e-03
       626      pv        11.58116122        14.94694727         1.49432491  7.387869e-03 -1.516609e-03 -2.974793e-03
       627      pv        11.97348051        16.32116053        2.619291891  7.246483e-03 -5.283557e-03 -1.350873e-03
       628      pv        10.71225337        15.14159643        2.932020892 -1.405863e-02 -1.311462e-02 -3.029771e-02
       629      pv        13.24498579        14.36432382        2.490731305 -1.725830e-02 -2.271475e-02 -1.066271e-02
        42      pv       -8.295714817        4.558419435       -7.410245116  6.828892e-03  5.322352e-03 -1.177325e-03
        43      pv       -7.926850542        5.461155174         -8.3701518  1.204569e-03  2.006817e-03  6.291921e-04
        44      pv       -8.564231052        3.644735262       -7.852294638 -1.829862e-03  2.947915e-03 -6.823994e-03
        45      pv       -9.190963433        4.973639256       -6.856876661 -9.789549e-03 -4.351175e-03  1.153748e-02
        46      pv       -7.444858646        4.392531664       -6.750862332  1.115980e-02 -1.709574e-02  8.759849e-03
        47      pv       -7.950469242        6.338532332       -7.909119853  1.470190e-02  1.558365e-03  8.545740e-03
        66      pv      -0.8250539635       -10.90972505        29.51352093 -6.026068e-03  2.130603e-03  7.445395e-03
        67      pv       -1.241878295       -11.99516331        30.23770469  3.335205e-03  3.631063e-03  1.126695e-03
        68      pv     -0.03977972046       -10.35273257        30.17224373  2.535056e-02 -1.518794e-02  1.526676e-02
        69      pv       -1.729847792        -10.3078229        29.38896345  4.432934e-03 -1.995726e-02 -2.565903e-02
        70      pv      -0.3796218071        -11.2110944        28.54858329  1.257433e-02  3.313157e-02  8.151575e-04
        71      pv      -0.4929388953         -12.228239        30.92412798  1.351923e-02  3.754410e-03  3.025631e-03
        96      pv        3.810787717       -3.631566299        8.002105475  1.120664e-03  9.157617e-03  1.286509e-03
        97      pv        4.814295671       -2.711859464        8.366241267  3.380264e-03 -3.387680e-03  4.057559e-03
        98      pv        2.842230001       -3.006765617        7.908548133 -7.426254e-04 -4.375634e-04  2.804622e-03
        99      pv        3.661488176       -4.406290123        8.773759907 -3.083664e-04 -1.716995e-02 -3.770330e-02
       100      pv        3.932883165       -4.042462446         6.93334404 -1.468073e-02 -8.646397e-03 -3.864841e-03
       101      pv        4.839769649       -2.683194171        9.360750716  1.463081e-03 -9.190338e-03 -1.624514e-03
       132      pv       -8.443472499        7.781781843        6.372880423 -6.134742e-03 -2.172746e-03  1.658281e-03
       133      pv       -8.437536674        8.954120942         5.68724823 -4.258137e-04  9.295815e-04 -1.498513e-03
       134      pv       -7.488936609        7.364894285         6.44567863  5.661185e-03  3.556359e-02  2.675814e-02
       135      pv       -9.206868607         7.08690913        5.928419163  3.594230e-02 -3.915054e-02  6.705300e-04
       136      pv       -8.812973363        8.025410608        7.265447354  9.770771e-03  9.303144e-03  3.414670e-03
       137      pv       -8.036018398        8.758099491        4.703936897 -2.088521e-02  1.167718e-02 -2.444707e-03
       192      pv      -0.6763796594     -0.05521830954        18.25078716  1.889906e-03  1.041171e-03 -8.596102e-04
       193      pv       -1.298064805      -0.7810634684        19.39895529  1.459417e-03 -5.600131e-04  6.302147e-04
       194      pv       -1.543717181       0.3745486392        17.67476063  6.695325e-03 -4.559540e-03 -8.006879e-03
       195      pv      -0.1515601667      -0.8049893257         17.7088849 -1.037334e-02  2.729892e-02  1.275958e-03
       196      pv     -0.02263303828       0.6548208928        18.69204303 -5.343396e-03 -1.343836e-02  1.448462e-02
       197      pv       -1.995033042      -0.1793314778        19.72880506 -1.967234e-02 -1.958717e-03 -9.145425e-03
       252      pv         18.3470559        3.423825939        16.30195639 -6.466796e-03 -1.175461e-03 -2.881393e-03
       253      pv        19.23994029        4.504952323        16.75753337  2.512697e-03 -7.676552e-03  3.902245e-03
       254      pv        17.38354723        3.309769404        16.77051228 -1.777321e-02 -3.872285e-04 -1.229806e-02
       255      pv        18.81217129        2.424487758        16.36137403  1.357007e-02  3.825554e-04  6.309650e-03
       256      pv        18.03874328        3.568734874        15.29155235  2.697746e-02 -1.304713e-02  1.811967e-02
       257      pv         19.8131112        4.061236879        17.39808669  2.872186e-03 -3.567568e-02  5.177440e-03
       306      pv        2.327033388        -6.34879315        11.38529719  5.877240e-04 -2.318635e-03 -2.839290e-03
       307      pv        2.081940672       -7.417321557         10.5489372 -6.144947e-03 -1.948441e-03 -3.325327e-03
       308      pv        1.557118095       -5.613829104         11.3460173  6.012184e-03  8.443445e-03 -1.235215e-02
       309      pv        3.236129706        -5.90419632        11.07172843 -1.247387e-02 -2.245506e-03 -1.468812e-02
       310      pv        2.265181276       -6.570368833        12.43809294 -1.156231e-02 -4.300974e-03 -2.975464e-03
       311      pv        1.153640629       -7.616099465        10.82331764  4.270758e-02  3.502944e-02 -1.522101e-02
       312      pv        -2.30793649        15.58027437        7.508699476 -1.822414e-03  1.069480e-03 -1.475750e-02
       313      pv       -3.272192332        14.96671762        6.743065474 -1.572804e-03  1.807055e-03  7.515599e-04
       314      pv       -1.295756776        15.28134142        7.182104674  2.272172e-02  3.750658e-02 -3.882941e-02
       315      pv       -2.457917165          15.268789        8.501161982  9.171295e-03 -1.653403e-02  4.354211e-03
       316      pv       -2.424305537        16.66119393        7.434211522 -9.770773e-04 -2.121091e-02  3.812092e-02
       317      pv       -2.746276791         14.6002337        5.967110595 -1.742884e-02  2.844168e-02 -2.060522e-02
       318      pv        5.999185718       -2.323951403        5.404692171  1.800936e-04 -5.937594e-03  1.201734e-03
       319      pv         5.10856725       -1.418581657        6.168078037 -3.541160e-03 -2.818551e-04  4.010375e-03
       320      pv         5.49777347       -2.590084684        4.432895552 -6.078041e-03  1.108649e-02 -2.512283e-02
       321      pv        6.165997684       -3.246125947        5.960477428  1.766319e-02  1.387825e-02 -1.959874e-02
       322      pv         7.00789351       -1.778664493        5.181032568  5.560156e-03 -7.701326e-03 -2.692042e-02
       323      pv        4.996828723        -1.80900246        7.090655765 -2.858657e-03 -9.606183e-03  1.225280e-02
       336      pv        9.870361652        17.85895123        20.87347083 -2.681277e-03 -8.069941e-03 -5.579356e-03
       337      pv         10.1319025        17.02364332        19.74658772 -5.278903e-03  5.694682e-04 -5.117203e-03
       338      pv        10.68139363        18.28556799        21.26983656 -5.353586e-03 -1.760999e-02 -1.988005e-02
       339      pv        9.138640163        17.27818796        21.62705202  5.372800e-03 -1.237593e-02 -9.799787e-03
       340      pv        9.246496039        18.57587753        20.56218699 -1.205964e-02 -8.587460e-03  1.387951e-02
       341      pv        10.54717043          17.607087        19.08303759  7.144064e-03  6.654185e-03  4.257727e-03
       378      pv         5.05627798        4.873740026        -5.30083058  6.197964e-04 -4.627891e-04 -8.004215e-03
       379      pv        6.155403699        5.583811676       -4.603000461  4.379033e-03 -2.760672e-03  7.038014e-03
       380      pv        5.007046495        5.114512642       -6.377144763 -4.741828e-03 -8.229314e-03 -2.142048e-02
       381      pv        4.087049622        5.032090933       -4.807849415 -8.754611e-03  1.804686e-02  4.764100e-03
       382      pv        5.339315328          3.8555208       -5.254752567 -2.338116e-02 -5.778873e-03 -1.045730e-02
       383      pv        5.819772669        6.005776604       -3.767615731  5.958955e-03  1.762282e-02  3.369371e-03
       402      pv        2.348562233         10.5503907       -1.316813205  8.167346e-03  8.149397e-03  1.237828e-03
       403      pv        2.954388571        11.71258881       -1.803762137  8.820600e-04  2.415314e-04  8.589253e-04
       404      pv        2.328968713        9.805503421       -2.097396197  2.878829e-03  2.238884e-02 -9.471632e-03
       405      pv        1.351834433        10.71303608       -1.073092033  1.055395e-03 -1.457663e-02  1.950546e-05
       406      pv        2.800423208         10.1517504       -0.342914739  9.813106e-03 -3.756460e-03 -1.842932e-03
       407      pv        2.992712753        12.31334706       -1.032444389 -9.631955e-03 -3.049473e-03 -4.663715e-03
       414      pv        18.48115547        14.98205455        4.151292598  3.630438e-03 -4.320172e-03  3.088406e-03
       415      pv        17.72718952        13.98706505        4.769524682  4.517072e-03  8.028117e-04 -7.295519e-03
       416      pv        18.23601462        15.98063964        4.496930309  1.123014e-02 -1.610550e-02  2.701212e-02