<OpenMD version=2>
  <MetaData>

molecule {
  name = "methanol";
  atom[0] { type = "CT"; position( -5.96684, 1.08283, -0.00928);}
  atom[1] { type = "OH"; position( -4.93201, 2.04823, 0.02864);}
  atom[2] { type = "H1"; position( -5.60539, 0.17925, -0.5063);}
  atom[3] { type = "H1"; position( -6.826, 1.48931, -0.54848);}
  atom[4] { type = "H1"; position( -6.26343, 0.83944, 1.01366);}
  atom[5] { type = "HO"; position( -4.68999, 2.24405, -0.89252);}

  bond { members(1, 5); }
  bond { members(0, 3); }
  bond { members(0, 2); }
  bond { members(0, 1); }
  bond { members(0, 4); }

}


component{
  type = methanol;
		nMol = 108;
}

forceField = "Amber";
ensemble = NVT;
electrostaticSummationMethod = "shifted_force";
electrostaticScreeningMethod = "damped";
cutoffRadius = 9;
dampingAlpha = 0.2;
targetTemp = 300;
tauThermostat = 100;
dt = 1.0;
runTime = 1.5e4;
tempSet = "false";
sampleTime = 1000;
statusTime = 10;

## Last run using OpenMD Version: 2.3 Revision: 2055
  </MetaData>
  <Snapshot>
    <FrameData>
        Time: 0
        Hmat: {{ 19.36269638, 0, 0 }, { 0, 19.36269638, 0 }, { 0, 0, 19.36269638 }}
  Thermostat: 0 , 0
    Barostat: {{ 0, 0, 0 }, { 0, 0, 0 }, { 0, 0, 0 }}
    </FrameData>
    <StuntDoubles>
         0      pv       -2.861230166       -5.830200635       -2.499185069  8.253534e-03  2.716639e-03 -4.550724e-03
         1      pv        -1.89040298       -5.045444338       -2.216902679  9.845814e-04  4.309360e-03  3.271186e-03
         2      pv       -3.602602066       -5.789331203       -1.662914074  1.938643e-02 -1.000817e-02  2.919653e-03
         3      pv       -2.590353431       -6.915365818       -2.526557135 -4.175944e-04  6.316240e-03 -4.160558e-03
         4      pv       -3.368462519       -5.496412256       -3.388373711 -9.003871e-03  4.180425e-03  2.707211e-02
         5      pv       -2.099155866       -4.243250088       -2.846230536  1.382129e-02  5.634140e-03  1.103571e-02
         6      pv       -3.842827709       -1.005488813      -0.6649558158  1.194639e-02 -2.795178e-03  5.794575e-03
         7      pv       -3.634365352      -0.6360877303       -2.025574635  4.199440e-03  4.942830e-03  1.310897e-03
         8      pv       -4.501026198      -0.3192764505      -0.2572658942  1.990465e-02 -3.707447e-02  1.520260e-02
         9      pv       -2.881092692      -0.9610073997      -0.2466421341  2.234739e-02 -5.581907e-03  5.021251e-03
        10      pv       -4.132133015       -1.996443991      -0.5122434193  2.138131e-02 -1.744337e-02  1.850718e-02
        11      pv       -2.630292221      -0.7044568474       -2.017110792 -1.134796e-02 -3.574053e-02 -3.142903e-02
        12      pv        2.005077269       0.7081829914       -3.321599299  1.628889e-03 -1.491576e-03 -2.904029e-03
        13      pv        1.166430211        1.255336853       -4.333975373  8.306809e-03  1.346095e-03 -5.482399e-03
        14      pv        1.416716898      0.09937420909       -2.555610715 -1.203207e-02 -3.375133e-04 -1.827490e-02
        15      pv        2.389513524         1.57785372       -2.761033239 -1.521585e-02 -1.710076e-02 -1.785759e-02
        16      pv        2.814736615      0.08732143249       -3.712723379  9.921928e-03 -6.733606e-03  3.300266e-04
        17      pv       0.7192540742        0.510215703       -4.690620543 -3.396450e-02  1.142819e-02  2.021710e-02
        18      pv      -0.2018362371       -3.220596597      -0.2327149888  5.673451e-03  4.099301e-03 -2.130482e-03
        19      pv       -1.534301869       -3.462465629       0.3054415513 -5.207525e-03  7.639128e-03 -5.744906e-03
        20      pv     -0.08883590517       -3.521029602       -1.280180019  7.115438e-03 -6.823196e-03 -4.689337e-03
        21      pv       0.5167505527        -3.65852398       0.3515252776  8.830212e-03  6.900274e-03  1.913807e-02
        22      pv      0.04589577555       -2.129641877      -0.2035282168  6.846913e-04 -1.210184e-03  2.396589e-03
        23      pv       -1.829095617       -4.092903394      -0.3782515079 -3.375724e-03  1.827571e-02 -5.207736e-03
        24      pv        -3.73877616       -4.757135016        2.695233906 -8.352078e-03  1.797473e-04 -7.732251e-03
        25      pv       -3.626574662       -3.536247186        2.018135634  5.142349e-03 -1.790307e-03 -1.214233e-02
        26      pv       -3.524674538       -4.655559966        3.770489389  1.374059e-02 -3.098583e-03 -1.243292e-02
        27      pv       -3.052665816       -5.408612078        2.218178056 -1.348788e-02  4.461270e-03  1.898645e-03
        28      pv       -4.755796823       -5.094780181        2.598513783  4.569323e-03 -5.107782e-03 -4.598362e-05
        29      pv       -2.715231191       -3.410999302        1.710327713 -7.472552e-03  2.662669e-02  2.264009e-02
        30      pv        -6.19701212        1.424855652        5.881544529 -1.846216e-03 -1.446761e-02 -4.327853e-03
        31      pv       -5.200986159        1.913928768        6.719335867 -3.602794e-03  1.164749e-03  1.707765e-03
        32      pv       -6.006486608       0.3497852371        5.698686576  2.704024e-02 -3.820077e-03  2.650918e-02
        33      pv       -6.168897822        1.902740823        4.946220394  7.260548e-03 -2.039441e-03  3.548927e-02
        34      pv        -7.18196794        1.404591915        6.345264694  4.271054e-04 -7.747196e-04  7.716285e-03
        35      pv       -5.661557827        2.611567111        7.187355479 -4.381242e-03 -8.353242e-03  9.084039e-03
        36      pv       -1.114069229      -0.7790830372        3.251370881  5.528074e-04 -4.051309e-03  2.735792e-03
        37      pv        -1.86927251       -1.044524657        2.128359113 -9.531889e-03 -1.571985e-03  4.120038e-03
        38      pv       -1.619355033       -0.091855456        3.980221283 -1.194020e-02  4.545616e-03 -5.341124e-03
        39      pv     -0.09482925862      -0.4970542385        2.983019731  1.837825e-02  1.544044e-02 -2.679709e-02
        40      pv        -1.03572984       -1.678089506        3.740383003  5.004748e-03 -1.322097e-03  1.554230e-03
        41      pv       -1.548300753        -1.89025145        1.838898182 -2.717288e-02 -8.923919e-03 -1.532607e-02
        42      pv      -0.3213693208       -3.172315939        5.954201183 -1.921581e-03  8.525452e-03  1.274910e-03
        43      pv      -0.8022201778       -4.122531791        4.964251711  3.419455e-03  1.168627e-02  2.343629e-03
        44      pv      -0.4393046946       -3.605343209        6.891414248  1.983805e-02  1.112192e-02 -9.955102e-03
        45      pv      -0.9138509722       -2.242278677         5.90140333 -1.070190e-02  1.379679e-03 -4.946251e-03
        46      pv       0.7258213414       -3.065033848        5.750261063  1.880385e-02  1.594186e-02 -1.238217e-03
        47      pv     -0.01710040654       -4.699714123        4.840057496 -1.382674e-02  9.006757e-03  1.213483e-02
        48      pv       -3.980501682       -4.248651844        9.267302369  8.283348e-03  2.070168e-03 -1.307299e-03
        49      pv       -4.176023031       -3.368459907         10.3940176 -9.078622e-05  2.089051e-03  7.198452e-03
        50      pv       -4.867428359       -4.185369848        8.590463617  1.834530e-03  1.857175e-02 -6.791954e-03
        51      pv       -3.850719359       -5.243374103         9.60336592 -3.096462e-03 -3.860641e-03 -1.149496e-02
        52      pv        -3.04194327       -3.880463791        8.693564938 -1.875245e-02  3.896553e-02  6.509745e-03
        53      pv       -5.115515806       -3.261472672        10.39382133 -4.294607e-03 -1.941802e-02  1.548116e-02
        54      pv       -3.049731833      -0.5049168388        12.24774511 -6.845501e-03  2.164861e-04 -7.894384e-03
        55      pv        -3.38189412       0.8781617875        12.10483198  6.043910e-03 -6.510742e-04 -4.196304e-03
        56      pv       -2.196599013      -0.7302213305        11.63355693 -2.416981e-02 -1.079405e-03 -8.316224e-03
        57      pv       -3.879433718       -1.018496952        11.86095745  3.791252e-03  1.921122e-02 -4.255843e-03
        58      pv       -2.932662935      -0.7812697839        13.25973934 -2.049570e-02  9.981057e-03  5.078318e-03
        59      pv       -3.690522207       0.9636552654        11.23453333 -4.097512e-02 -3.804513e-02  1.324059e-02
        60      pv      -0.1415443664      -0.3907931791        9.674251178 -4.676143e-03  6.345193e-03 -2.651474e-03
        61      pv        1.121477945      -0.9731860473        9.427084205  3.267488e-03  7.193748e-04  8.041129e-03
        62      pv      -0.1906206274       0.6906037544        9.378037627 -6.760633e-03  1.619859e-02 -2.141429e-02
        63      pv      -0.3344831539      -0.4535599981        10.73435779  1.747964e-03  2.488176e-03  1.019987e-02
        64      pv      -0.9344817282      -0.9694464198        9.148987209  2.441899e-03  2.980585e-03  2.390770e-02
        65      pv       0.9684871599       -1.912441696        9.396371371  2.269217e-02 -4.169575e-03  2.290139e-02
        66      pv        -1.27886435       -3.272489825        14.16922377 -1.798593e-02 -1.483445e-03  6.370683e-03
        67      pv       -1.839202373        -2.99204827        15.45406728 -2.233487e-03  1.549947e-03  6.661079e-03
        68      pv        -1.92629835       -2.824706762        13.43907667 -1.125801e-02  2.062656e-03  2.979965e-02
        69      pv       -1.218149698       -4.394684549        13.96020879 -1.463257e-02 -1.526428e-02  1.574605e-02
        70      pv      -0.3208577343        -2.74752513        14.05970795 -2.517077e-02  1.044266e-02 -5.454342e-03
        71      pv       -2.407676229       -2.128480467        15.36564093 -5.713683e-02 -2.981970e-02  3.740944e-03
        72      pv       -4.546666852         3.00270659       -1.609592761 -2.343054e-04 -2.357114e-03 -1.112665e-03
        73      pv        -3.72009075         3.96332824       -1.780151904  7.193501e-03  4.431796e-03  7.728497e-04
        74      pv       -4.295531393         2.13709164       -2.159297832 -3.836309e-03  1.179217e-02 -2.957152e-02
        75      pv       -5.565602385        3.236364597       -1.914501043 -1.689518e-02  1.540925e-02  6.077747e-03
        76      pv        -4.48900957        2.783249351      -0.5148486367  8.559655e-03 -7.806140e-03  5.229709e-03
        77      pv       -3.108703071         3.59941134       -2.423934267  1.901113e-02  2.590059e-03 -1.090190e-02
        78      pv       -3.110147747        5.504648971       0.9037146788  2.024326e-04 -1.889830e-03 -2.119933e-03
        79      pv       -2.859385063        5.560118776        2.292426043  4.208659e-03 -1.351432e-03  5.602969e-03
        80      pv       -2.809750547        6.476661941       0.5588234791 -2.730235e-02 -9.104320e-03 -1.146353e-02
        81      pv       -4.188684112        5.299302657       0.6314281533 -1.148686e-02  1.327251e-03  2.904669e-02
        82      pv       -2.471861384        4.741556642       0.3984882477 -1.256974e-02  2.159454e-03 -1.991452e-02
        83      pv       -3.412787829        6.346901805        2.576910156 -3.470123e-03 -3.434189e-03 -3.969303e-03
        84      pv      -0.2402416686        5.847976895       -5.212978272 -3.479523e-04  9.524656e-03 -1.084684e-03
        85      pv       -1.583308556        5.823757962       -4.625427705 -1.776041e-03 -2.705736e-03 -1.756575e-03
        86      pv       0.5530548313        5.818731143       -4.480193782  1.305823e-02 -1.326738e-02  1.987166e-02
        87      pv     -0.09293689586        6.741214074       -5.868958078 -1.019780e-02  1.022714e-02 -1.464903e-02
        88      pv      -0.1442697586        4.903943938       -5.850978546 -1.196925e-02  1.253087e-02 -9.592424e-03
        89      pv       -1.642192295        4.860860456       -4.250083193  1.071329e-02 -7.258333e-04  6.421994e-03
        90      pv       -1.601465793        2.180960278       0.8028262475 -2.481344e-03 -6.076209e-03  1.049073e-03
        91      pv      -0.8561188333        2.150777389        1.959851058 -7.747109e-04 -1.024783e-02  5.039652e-03
        92      pv      -0.9455610687        2.365198874     -0.08213576528 -1.474259e-02 -2.312167e-02 -1.211481e-02
        93      pv       -2.450990284          2.8597461       0.8442311561  7.203340e-03  1.707661e-03 -8.019362e-03
        94      pv       -1.994842818        1.190381422       0.6877828269  8.867757e-04  8.244978e-03  8.887918e-03
        95      pv       -1.455200809        2.348777578        2.723646477 -2.830908e-02  8.647684e-03  2.953320e-02
        96      pv        -3.79733775        3.151160018        3.994712145 -1.144254e-02 -2.503131e-03  8.644527e-04
        97      pv       -2.463239602        3.255601891        3.890065452 -4.399505e-03 -4.280012e-03  2.308238e-03
        98      pv        -4.03575935         2.22145506        4.525368292 -2.418482e-02  1.932686e-04 -7.980488e-03
        99      pv       -4.179712505        3.066974894        2.993055835  3.579526e-03 -9.190982e-03  1.174611e-02
       100      pv       -4.105672694        4.055000684        4.469751231 -5.113328e-03 -4.167729e-03  7.465980e-03
       101      pv       -2.303026506        4.142595636         3.44471096 -2.955282e-03 -9.941251e-03 -3.351242e-03
       102      pv       -2.819000595        6.778471254        7.639223071  4.634223e-03  1.553150e-03 -7.666133e-03
       103      pv       -2.968160676        6.599805647        6.245273175 -2.516501e-03 -8.413348e-04 -5.331898e-03
       104      pv       -3.752787274        7.128331448        8.093009197 -4.940166e-03 -1.667143e-04 -2.798986e-02
       105      pv       -1.960169311        7.366261118        7.913939418 -6.692686e-03 -8.844373e-03  1.278916e-02
       106      pv       -2.622671367        5.833926407         8.06594812 -3.372182e-02  3.690232e-03  9.577446e-03
       107      pv       -2.206553443        7.025507006        5.876981558 -2.525769e-03 -3.216544e-02 -1.289068e-02
       108      pv       -1.132981184        8.781277013        3.453779301  7.140391e-04  1.471505e-03  5.903438e-03
       109      pv      -0.1534294078        9.652589419        3.063111236 -2.606488e-03  3.504028e-03 -5.520697e-03
       110      pv       -1.853117269        8.604088364        2.653779575 -2.908992e-02  1.701548e-02  7.684017e-03
       111      pv       -1.635117611         9.19668115        4.335302389  1.862022e-03 -3.282589e-02  2.269878e-02
       112      pv      -0.6673385163        7.899773927        3.797493495  1.270250e-02 -1.451256e-02 -1.565643e-02
       113      pv      -0.5922640653        9.783041766        2.176568736  7.301106e-03  5.016772e-03 -1.839801e-02
       114      pv      0.02573461758        3.052859413        5.717745497 -3.423944e-03  8.588347e-03  7.219181e-04
       115      pv      -0.3857743628        4.409758435        6.137355542 -5.431219e-03 -3.164291e-03  1.789154e-04
       116      pv       0.9619708017        2.826757216        6.202372895 -8.869330e-03  1.888763e-02  1.765380e-03
       117      pv       0.3371984302        3.043966595        4.704425698  1.483190e-02  1.743608e-02  1.621512e-02
       118      pv      -0.7736689065        2.359793348        5.882839973  3.127084e-03  1.232909e-02 -2.329096e-03
       119      pv       -1.281836927        4.453331186        5.810415369  5.577819e-03  2.078479e-03 -5.347756e-03
       120      pv       -3.314606644         3.32609096        9.213457921 -7.046985e-03 -6.876270e-03  4.138878e-03
       121      pv         -2.7135083         3.16985891         7.99468584 -1.979094e-03  2.923521e-03 -4.394309e-03
       122      pv       -4.389134469        3.513240457        9.080670738 -8.678824e-03 -9.477357e-03  3.858979e-02
       123      pv       -2.854671421        4.161860087        9.661085622 -4.494017e-03 -2.937253e-02 -2.266233e-03
       124      pv       -3.171439562        2.365342156        9.851933456  7.231903e-03  3.315605e-03 -1.906566e-02
       125      pv       -3.385279088        2.795851953        7.371722875 -1.341794e-03 -1.997499e-02  3.088716e-03
       126      pv       -3.107870352        7.244059284        12.30540796  6.170328e-05  6.269443e-04 -3.899282e-03
       127      pv       -2.745978234         7.63075104        13.54275947 -6.259108e-03 -5.100883e-03 -8.521574e-03
       128      pv       -4.177740863        7.187544819        12.34137825 -3.613391e-03  2.105792e-02 -9.914832e-03
       129      pv        -2.53983482        6.343443972        12.12627865  1.072637e-02  6.012451e-03 -2.168914e-03
       130      pv       -2.763040386        7.929531888         11.5863917  4.959526e-03  7.106483e-03  1.063741e-03
       131      pv       -2.549351524        6.832517204        14.09594907  2.718095e-03  6.813767e-03  1.400740e-02
       132      pv       0.2070667048        5.297356838        9.563064535  7.743168e-04 -8.728661e-04  2.512032e-03
       133      pv       0.2902155297        5.822024464        8.255400613  4.134971e-03  3.473161e-04 -2.746489e-03
       134      pv        1.256286238        5.060813552        9.952649315  1.223051e-02 -1.272413e-02  1.002481e-02
       135      pv      -0.3809724841        4.471034344        9.671796292 -1.682183e-03 -1.202458e-02  6.374646e-03
       136      pv       -0.171850269        6.061574729        10.21020498 -1.203801e-02 -7.866947e-04  2.663339e-02
       137      pv      -0.1017151117        5.231479628        7.515613152 -1.499072e-02 -5.952929e-03 -3.124479e-02
       138      pv       -2.057671012        2.698929948        14.05913457  3.124410e-04 -3.907566e-04  1.633409e-03
       139      pv       -1.412042438        3.264172373        15.15827045 -3.324467e-03  5.787563e-04  1.307339e-02
       140      pv        -1.32239671        2.519487899        13.31902047  9.497343e-03 -2.659910e-03  1.030381e-02
       141      pv       -2.764450027           3.410422        13.58455527  2.225046e-02 -2.975588e-03 -1.147263e-02
       142      pv       -2.597717222        1.767355347        14.35630263 -1.113288e-02  2.641677e-03  6.241711e-03
       143      pv      -0.5309195937        2.797149661        15.16564049 -2.185924e-02  1.203165e-02  1.841671e-02
       144      pv       -3.791425456        8.214823153       -2.968089161  2.297017e-03 -2.212711e-03 -2.560054e-03
       145      pv        -4.19658289        6.839326921       -3.010815748 -9.308600e-03 -1.475678e-03  6.390460e-03
       146      pv        -4.68731971        8.905722782       -2.932035225  3.912813e-03  4.842128e-04  2.537127e-02
       147      pv         -3.0090258        8.519705287       -3.683255798  6.768413e-03 -4.714135e-03 -1.921423e-03
       148      pv       -3.272836085         8.32137589       -2.024215828  1.855950e-02 -1.220355e-02 -7.858220e-03
       149      pv       -3.375438406        6.319213627       -3.275074777  1.997423e-02 -1.066850e-02  6.441405e-03
       150      pv       -3.157675025        10.52756866        0.558831877  1.771617e-03 -1.488191e-03  5.348667e-03
       151      pv       -1.758943062        10.21860954       0.5370212703  8.093573e-03 -1.577199e-03 -5.469973e-04
       152      pv       -3.632610478        10.35692112      -0.4819403228  6.757906e-04 -2.537949e-02  5.200432e-03
       153      pv       -3.321560979        11.50142542       0.8930386962  6.092746e-03  1.580138e-02 -1.959259e-03
       154      pv       -3.611041548         9.90226363        1.295062596  2.891650e-02 -5.581173e-03  2.824111e-02
       155      pv       -1.387135648        10.27295323      -0.3275160449  1.704076e-02 -7.940784e-03  1.470574e-02
       156      pv        1.398084621        13.18545341       -1.768191729 -7.446199e-04  1.326194e-02  3.527457e-04
       157      pv        2.257581048        13.48207446       -2.833186404  1.117625e-02 -1.154240e-03  4.899567e-03
       158      pv        0.805086671        12.27363247       -2.092408564 -1.730958e-02  3.595384e-03 -1.301457e-02
       159      pv       0.7425320966        14.04959902       -1.683522029  8.689103e-03  1.139568e-02 -2.264495e-02
       160      pv        2.006870149        13.06873197      -0.8437751785  2.084007e-03  2.378058e-02 -8.578648e-03
       161      pv        1.730826656        13.65474411       -3.619703618  5.300520e-03 -2.582825e-02 -5.299039e-03
       162      pv       0.3894721694        8.948388222        -1.77991489 -1.628340e-03 -5.095545e-03  6.894985e-03
       163      pv      -0.1632242577        10.21897251       -1.575299086 -2.217925e-03  8.349891e-03 -5.247817e-03
       164      pv      0.07548237048        8.645971305       -2.799464155  2.540757e-04  2.632488e-03  3.072487e-02
       165      pv     -0.07886483824        8.200811986       -1.122095042 -1.422377e-02  3.088229e-02 -6.084481e-03
       166      pv        1.510340772        8.879381445        -1.78010555 -5.395269e-04  1.266939e-03 -3.662547e-03
       167      pv      -0.7398982435        10.37439109       -2.408970748 -2.318207e-02 -3.651661e-02  1.888522e-02
       168      pv       -5.088644723        7.757557053        4.049681338  3.456118e-04  1.175726e-02 -6.949002e-04
       169      pv       -4.727428304        7.427583344        2.750065386 -6.379258e-03 -2.667919e-03 -4.061529e-03
       170      pv       -4.829726928        6.917778369         4.68153132 -2.115026e-03  9.677561e-03 -8.645767e-03
       171      pv        -6.21830823         7.94300102        4.072477468 -4.626706e-03  2.186069e-02  1.284455e-02
       172      pv       -4.567901413        8.665876738         4.39882083  8.753443e-03  1.979547e-02 -1.049144e-02
       173      pv       -5.521187816        7.784688727        2.178457672 -8.048801e-04 -1.681110e-02 -2.778894e-02
       174      pv       -2.004734489        12.56233941         5.39077559  5.541502e-03  8.696027e-03 -8.177821e-03
       175      pv       -2.513484211        11.29759734        5.770336766  1.933345e-03  1.962189e-03 -7.781640e-03
       176      pv       -1.848550829         12.5404864        4.344256538 -1.456308e-02  1.986138e-02 -5.565480e-03
       177      pv       -1.068954842        12.70736748        6.043113955  1.207910e-02 -3.393506e-03 -2.011322e-02
       178      pv       -2.705456432        13.34716698        5.716825245  2.939691e-02 -1.411198e-02 -5.038313e-03
       179      pv        -3.41316172        11.24759199        5.426186693  9.991186e-03 -1.492999e-02  1.074959e-02
       180      pv       0.4832213939        12.90223472        2.143732461  5.259787e-03  1.042497e-02 -4.134553e-04
       181      pv        1.639227336        12.11081219        1.607270062  3.679500e-03 -1.694148e-03  2.196206e-03
       182      pv       0.6009451413         13.2187021        3.216482802  2.251245e-02  2.344931e-02 -1.972861e-02
       183      pv      -0.4208465159        12.31623122        2.042423293  7.616559e-03 -1.304586e-02  6.752295e-03
       184      pv       0.4053180423        13.82661875        1.620424439 -1.432453e-02  2.058164e-02  7.201189e-03
       185      pv        1.242392577        11.31852982        1.438782391 -6.231038e-03  7.194227e-03 -3.512405e-03
       186      pv       0.3398731931        9.855686972        7.018813631  4.946599e-03 -3.371704e-04 -4.042796e-03
       187      pv      -0.3761276217        10.83025668        7.732730775  6.819223e-03  2.361175e-04  4.126679e-03
       188      pv        1.079934039        10.31166379        6.322283869 -1.340690e-02 -1.295232e-02 -1.752230e-02
       189      pv      -0.3364512973        9.201198484        6.487756903  1.232708e-02 -4.219239e-03  1.426428e-02
       190      pv       0.9356013798        9.313717874        7.782608074  1.804782e-02  1.391241e-02 -1.046908e-02
       191      pv       -1.355299551        10.76142774        7.650784671 -5.614524e-03 -1.330223e-02 -3.839928e-03
       192      pv       -3.779195972         9.94247452        9.640890651 -6.140703e-03 -4.252442e-03 -3.222332e-03
       193      pv       -3.932841365        10.99395484        8.643823382  5.041049e-04 -4.570993e-03 -6.337111e-03
       194      pv       -4.762190199        9.730667237        10.15023897  1.009255e-02  1.224914e-02  1.141319e-02
       195      pv       -3.040156222        10.35546845        10.37616368  7.965297e-03 -4.007761e-02 -2.693443e-02
       196      pv       -3.407903512        9.078546602        9.174875789 -5.549940e-03  7.363063e-04 -2.549185e-03
       197      pv        -3.77545169        10.69001184        7.818720327  1.247695e-02  5.363212e-03  5.929984e-03
       198      pv       -2.656762049        12.96726818         12.1705193 -4.637130e-04  5.111376e-03 -4.690026e-03
       199      pv       -2.864584544        12.62720606        13.49638035  2.563857e-03  8.038808e-03 -2.928845e-03
       200      pv       -3.352977253        12.38243572        11.59703997  4.517730e-03 -6.090043e-03 -1.402236e-03
       201      pv       -1.569980627        12.88650521        11.90576745 -7.157356e-03  2.348775e-02 -1.512508e-03
       202      pv       -2.908844604        13.98124119        12.07999531 -2.638034e-03  1.146382e-02  2.880356e-03
       203      pv       -3.734078024        12.92977349        13.75138158 -1.270742e-02  9.315960e-03  1.313470e-03
       204      pv       0.9112269776         13.8507974        9.262362225 -1.040826e-03 -3.214460e-03 -9.107461e-04
       205      pv        2.089161391        13.66655708        10.02404739  5.264983e-03 -5.579459e-03  1.681505e-03
       206      pv       0.2333450453        13.01872439        9.472623479 -4.188792e-03 -1.100182e-02  4.683855e-05
       207      pv        1.120843741           13.91838        8.150222898 -1.850125e-03 -6.352631e-03  4.972503e-03
       208      pv       0.3892585449        14.74506435        9.564681276  1.770390e-03 -4.287354e-03 -8.319821e-03
       209      pv        1.984803484        14.20053595        10.79685738  1.610035e-02  2.663864e-02 -2.123063e-02
       210      pv      -0.2545967813        10.43093945        14.20805792 -5.273609e-04 -7.738745e-03 -4.730516e-03
       211      pv       -1.202534503        10.55218609        15.25992584 -9.070201e-03 -2.698399e-03 -6.116599e-03
       212      pv      -0.7350039945        10.70260792        13.17303279  2.345501e-02  4.048461e-02  2.726006e-04
       213      pv    -0.009383923189        9.319644838        14.12904689 -3.456931e-02 -3.928367e-03  1.849457e-02
       214      pv       0.5440499284        10.97029238        14.41323646 -5.417069e-03 -8.553604e-03  1.411371e-02
       215      pv       -2.066229289        10.17222579        14.88679563 -5.662763e-03  4.155540e-03  3.498691e-02
       216      pv         3.78462347       -3.189746797       -3.098511957  1.008347e-03  6.086189e-03 -7.138364e-03
       217      pv        4.709195391        -2.35675737        -2.52843079 -1.219710e-03 -1.565997e-04  1.025888e-02
       218      pv        3.720553813       -4.106782612        -2.55830859 -2.916342e-02  1.801549e-03 -1.722006e-03
       219      pv        4.054500989        -3.32402701       -4.199129194  1.544767e-02  1.356917e-02  2.034563e-03
       220      pv        2.773838207       -2.779653087       -2.926151346 -2.836837e-03  1.274287e-02 -1.068177e-02
       221      pv        5.326942836       -2.945421908        -2.08979537 -1.250509e-02 -8.186009e-03  2.012955e-02
       222      pv         2.49318923        2.130791462        2.199430058  8.608604e-03 -5.221010e-04  9.633464e-03
       223      pv          1.9707015        2.527866677       0.9214775267 -4.870165e-03  1.270521e-04  3.845913e-03
       224      pv        3.551293893        2.271255474         2.33022238  1.917745e-02 -2.414859e-03  1.912002e-03
       225      pv        2.309237989         1.03686134        2.253138938  1.653975e-02 -4.746011e-03  2.212065e-03
       226      pv        1.989666332        2.627983125        3.034330813  8.547249e-03  9.218606e-05  2.040318e-02
       227      pv       0.9761120632        2.473998036        1.006329324  1.152634e-02  7.307294e-03  1.294654e-02
       228      pv        6.815629393      0.07640756282       -3.037297399  1.325026e-03 -1.561636e-03  2.497050e-03
       229      pv        7.851847296      -0.4247409546       -3.726391222  1.153806e-03 -3.087745e-03  1.144094e-03
       230      pv         6.46140573      -0.6491087628       -2.230510123  1.781913e-02  5.972891e-03 -1.158489e-02
       231      pv        5.954976902       0.4210638128       -3.648812533  1.478429e-02  7.279510e-03 -4.691669e-03
       232      pv        7.263867901        0.990320489       -2.555912667  2.242368e-02  3.832988e-04 -4.573228e-03
       233      pv        7.612286162       -1.310471408       -4.072580523  1.179030e-02 -1.534667e-02 -1.024327e-02
       234      pv        7.165634289       -4.723030069       0.0772205279  1.090036e-03 -1.801034e-02 -8.069294e-03
       235      pv        7.526593803       -3.520304189       0.6429212515 -2.086721e-03  1.883925e-03 -8.078101e-04
       236      pv        6.536823352       -4.566243023      -0.7802579515  7.354502e-03  3.636830e-03 -2.174749e-03
       237      pv        6.634553947       -5.297930623       0.8434790409 -3.338571e-03 -1.173444e-02  2.250496e-03
       238      pv        8.084547809       -5.239818358       -0.172429462 -6.262629e-03 -1.781260e-02  9.058912e-03
       239      pv          8.0469739       -3.686168859        1.520197673 -1.035358e-02 -4.737672e-03 -3.241197e-03
       240      pv        4.486359688       -3.136431635        2.142468427  3.174782e-03  1.165297e-03  5.101672e-03
       241      pv         5.48663913       -2.127358246        1.886681291  2.975590e-03 -2.292969e-03 -7.928990e-03
       242      pv        3.599169599       -2.901713564        1.743551532  1.500450e-02  2.414219e-02 -7.211380e-03