<OpenMD version=2>
  <MetaData>

molecule {
  name = "methanol";
  atom[0] { type = "CT"; position( -5.96684, 1.08283, -0.00928);}
  atom[1] { type = "OH"; position( -4.93201, 2.04823, 0.02864);}
  atom[2] { type = "H1"; position( -5.60539, 0.17925, -0.5063);}
  atom[3] { type = "H1"; position( -6.826, 1.48931, -0.54848);}
  atom[4] { type = "H1"; position( -6.26343, 0.83944, 1.01366);}
  atom[5] { type = "HO"; position( -4.68999, 2.24405, -0.89252);}

  bond { members(1, 5); }
  bond { members(0, 3); }
  bond { members(0, 2); }
  bond { members(0, 1); }
  bond { members(0, 4); }

}


component{
  type = methanol;
		nMol = 108;
}

forceField = "Amber";
ensemble = NVT;
electrostaticSummationMethod = "shifted_force";
electrostaticScreeningMethod = "damped";
cutoffRadius = 9;
dampingAlpha = 0.2;
targetTemp = 300;
tauThermostat = 1000;
dt = 1.0;
runTime = 1e3;
tempSet = "false";
sampleTime = 100;
statusTime = 10;

## Last run using OpenMD Version: 2.3 Revision: 2055
  </MetaData>
  <Snapshot>
    <FrameData>
        Time: 0
        Hmat: {{ 19.36269638, 0, 0 }, { 0, 19.36269638, 0 }, { 0, 0, 19.36269638 }}
  Thermostat: 0 , 0
    Barostat: {{ 0, 0, 0 }, { 0, 0, 0 }, { 0, 0, 0 }}
    </FrameData>
    <StuntDoubles>
         0      pv       -3.953470358       -3.204600883       -3.242904318 -4.959515e-03  1.988960e-03 -7.676615e-03
         1      pv       -2.539094161       -3.201984011       -3.180925766  2.682719e-03  1.082366e-03 -2.570398e-03
         2      pv       -4.336814157       -4.126862348       -2.799493538  1.756638e-02 -1.118706e-02  3.508947e-02
         3      pv       -4.273563455       -3.128160473       -4.284929178  9.542187e-03  9.005252e-03  4.830009e-03
         4      pv       -4.335293877       -2.347655061       -2.683024668 -2.789843e-02 -6.119194e-03  1.522147e-02
         5      pv       -2.229494528       -3.972969073       -3.686084158 -1.217436e-02 -2.919618e-02 -1.725467e-02
         6      pv       -3.201225862      -0.4117933809      -0.5984168043  2.901662e-03 -3.624050e-03 -2.865741e-03
         7      pv       -3.250320286       0.4357586475       0.5345234025  4.686065e-03  6.737915e-03 -7.176911e-03
         8      pv       -4.095737154       -1.038932157      -0.6244610749 -2.956996e-02 -2.558938e-03  2.156710e-02
         9      pv       -2.306283236       -1.036854173       -0.548464459  1.010240e-03  3.199983e-02  1.123005e-03
        10      pv       -3.163607782       0.2029877197       -1.500769087  5.811065e-05  8.186769e-03  7.323107e-03
        11      pv        -3.28298862      -0.1376179115        1.319142418  1.897480e-02  1.281085e-02 -1.115453e-03
        12      pv     -0.02589020127       0.4269283134       -2.639401273 -4.045547e-03  8.254399e-03 -1.078386e-03
        13      pv      0.02320422255      -0.3587006143       -3.816127724 -3.420913e-03 -4.307684e-03  2.169431e-03
        14      pv       0.8686210901       0.2424368285       -2.039447741 -1.784808e-02  1.621688e-03  1.612951e-02
        15      pv      -0.9208328278       0.1714791931       -2.066739088  3.931458e-03 -1.904956e-02 -4.104064e-03
        16      pv     -0.06350828203        1.482601238       -2.918238359  8.324425e-03 -2.193286e-03  2.176801e-02
        17      pv      0.05587255584       -1.289572036       -3.537082792 -9.167051e-03 -1.879462e-02  4.294380e-04
        18      pv      0.02589020127        -2.80018775      -0.5877147909  4.098467e-03  7.181520e-03 -8.384975e-03
        19      pv     -0.02320422255       -3.585816678       0.5890116603 -2.680255e-03  5.769994e-03  1.849933e-03
        20      pv      -0.8686210901       -2.984679235       -1.187668323 -3.024986e-02  1.465973e-02  2.444917e-02
        21      pv       0.9208328278       -3.055636871       -1.160376976 -1.508665e-02  5.112624e-04 -7.152218e-03
        22      pv      0.06350828203       -1.744514826      -0.3088777049  5.756925e-03  2.495101e-02  8.912651e-03
        23      pv     -0.05587255584         -4.5166881       0.3099667282 -7.496872e-03  1.769022e-02  2.774126e-03
        24      pv       -3.953470358       -3.204600883         3.21132781 -6.376142e-03  1.261422e-03  5.746142e-03
        25      pv       -2.539094161       -3.201984011        3.273306361  1.593413e-03 -1.627003e-03 -1.504973e-03
        26      pv       -4.336814157       -4.126862348         3.65473859  1.170530e-02 -9.033014e-03 -1.356784e-04
        27      pv       -4.273563455       -3.128160473         2.16930295 -1.495030e-03 -1.907417e-02  1.379262e-02
        28      pv       -4.335293877       -2.347655061         3.77120746  3.616267e-03 -8.125100e-03  1.339055e-02
        29      pv       -2.229494528       -3.972969073        2.768147969  2.174532e-02 -3.823832e-02  7.437894e-03
        30      pv       -3.201225862      -0.4117933809        5.855815323  4.918046e-03  4.193957e-03  1.809104e-03
        31      pv       -3.250320286       0.4357586475         6.98875553 -4.194727e-03 -1.268825e-03 -7.524784e-03
        32      pv       -4.095737154       -1.038932157        5.829771053 -2.001330e-02 -1.251839e-02  3.944299e-02
        33      pv       -2.306283236       -1.036854173        5.905767668 -1.190738e-02 -1.579070e-02  2.273530e-02
        34      pv       -3.163607782       0.2029877197         4.95346304  2.529555e-02  4.148941e-03 -2.543983e-02
        35      pv        -3.28298862      -0.1376179115        7.773374546  3.377604e-02 -1.060645e-02 -7.775001e-03
        36      pv     -0.02589020127       0.4269283134        3.814830855 -1.199728e-02 -5.256228e-03  2.379463e-03
        37      pv      0.02320422255      -0.3587006143        2.638104403  5.563498e-03  8.971502e-03 -7.780198e-04
        38      pv       0.8686210901       0.2424368285        4.414784387 -9.155605e-03 -8.596939e-03 -2.976498e-02
        39      pv      -0.9208328278       0.1714791931         4.38749304  1.136240e-02 -6.643210e-03 -1.649264e-02
        40      pv     -0.06350828203        1.482601238        3.535993769  3.602585e-03  7.664411e-03  2.587229e-03
        41      pv      0.05587255584       -1.289572036        2.917149336 -5.412817e-03  1.068121e-02 -1.219894e-02
        42      pv      0.02589020127        -2.80018775        5.866517337 -7.417751e-03 -2.986561e-03  1.734177e-03
        43      pv     -0.02320422255       -3.585816678        7.043243788 -3.557537e-03  2.153331e-03 -7.540323e-03
        44      pv      -0.8686210901       -2.984679235        5.266563804 -2.183066e-02  3.174906e-02  1.988846e-02
        45      pv       0.9208328278       -3.055636871        5.293855152 -2.972184e-02  2.204198e-02 -2.244820e-04
        46      pv      0.06350828203       -1.744514826        6.145354423  8.577699e-03 -9.309082e-03 -1.018680e-03
        47      pv     -0.05587255584         -4.5166881        6.764198856  4.248020e-03 -9.921588e-03 -4.765837e-03
        48      pv       -3.953470358       -3.204600883        9.665559937  2.154488e-03  8.418793e-03 -1.146978e-02
        49      pv       -2.539094161       -3.201984011        9.727538488  4.843487e-03 -1.942954e-03 -2.556366e-03
        50      pv       -4.336814157       -4.126862348        10.10897072 -2.539788e-02  8.635039e-03  4.739943e-03
        51      pv       -4.273563455       -3.128160473        8.623535077  1.733951e-02 -4.650771e-03  1.596952e-02
        52      pv       -4.335293877       -2.347655061        10.22543959 -1.905208e-02  1.384701e-02  9.744212e-03
        53      pv       -2.229494528       -3.972969073        9.222380097  1.494601e-02  5.903572e-03  2.055057e-02
        54      pv       -3.201225862      -0.4117933809        12.31004745 -6.907408e-04 -2.335071e-03  9.437999e-03
        55      pv       -3.250320286       0.4357586475        13.44298766  2.057472e-03 -1.592213e-03  1.062917e-02
        56      pv       -4.095737154       -1.038932157        12.28400318  2.866757e-02  1.011222e-02  1.343291e-02
        57      pv       -2.306283236       -1.036854173         12.3599998  2.071265e-02  3.595844e-03 -1.284552e-03
        58      pv       -3.163607782       0.2029877197        11.40769517  5.154138e-04 -1.510212e-02 -1.915871e-04
        59      pv        -3.28298862      -0.1376179115        14.22760667 -7.361382e-04 -3.349878e-03  7.285712e-03
        60      pv     -0.02589020127       0.4269283134        10.26906298  4.597978e-03  2.699871e-03 -8.332892e-03
        61      pv      0.02320422255      -0.3587006143        9.092336531  9.987386e-04  1.448914e-03  6.549251e-03
        62      pv       0.8686210901       0.2424368285        10.86901651  8.170971e-04 -1.049155e-02 -2.897754e-02
        63      pv      -0.9208328278       0.1714791931        10.84172517  1.410086e-02 -1.603499e-02  1.143630e-02
        64      pv     -0.06350828203        1.482601238        9.990225896  1.395860e-02 -2.026775e-03 -9.794737e-03
        65      pv      0.05587255584       -1.289572036        9.371381463 -1.399882e-02 -2.125860e-03  3.726589e-03
        66      pv      0.02589020127        -2.80018775        12.32074946 -2.775276e-03 -5.358243e-03  3.429619e-04
        67      pv     -0.02320422255       -3.585816678        13.49747592 -2.579842e-04 -2.701284e-03 -2.117832e-03
        68      pv      -0.8686210901       -2.984679235        11.72079593  3.359430e-03 -1.002239e-02  2.649242e-02
        69      pv       0.9208328278       -3.055636871        11.74808728  1.111659e-03  3.919574e-03 -1.080993e-02
        70      pv      0.06350828203       -1.744514826        12.59958655  3.871791e-03  1.759142e-02 -1.345668e-02
        71      pv     -0.05587255584         -4.5166881        13.21843098 -2.508963e-02 -5.196129e-02  9.745235e-03
        72      pv       -3.953470358        3.249631245       -3.242904318  1.022605e-03  3.898650e-04  1.325575e-03
        73      pv       -2.539094161        3.252248116       -3.180925766 -1.283065e-03 -1.691741e-03  8.054960e-04
        74      pv       -4.336814157        2.327369779       -2.799493538 -2.159860e-02  1.744061e-02 -1.445824e-02
        75      pv       -4.273563455        3.326071655       -4.284929178  1.821994e-02 -3.591636e-02 -1.947796e-03
        76      pv       -4.335293877        4.106577066       -2.683024668  9.568496e-03  2.093906e-02  1.591204e-02
        77      pv       -2.229494528        2.481263055       -3.686084158  5.346371e-03 -1.654456e-03  1.556068e-02
        78      pv       -3.201225862        6.042438747      -0.5984168043 -1.795240e-03  3.996062e-03  5.822572e-03
        79      pv       -3.250320286        6.889990775       0.5345234025  1.619685e-03 -2.565870e-03  5.575334e-03
        80      pv       -4.095737154         5.41529997      -0.6244610749  5.462984e-03  2.624586e-04  2.886341e-02
        81      pv       -2.306283236        5.417377954       -0.548464459 -1.062789e-02  4.282682e-04  7.280121e-03
        82      pv       -3.163607782        6.657219847       -1.500769087 -1.405139e-02 -1.260479e-02 -3.462510e-02
        83      pv        -3.28298862        6.316614216        1.319142418 -1.436690e-02  9.090311e-03 -3.005619e-02
        84      pv     -0.02589020127        6.881160441       -2.639401273  3.725553e-03  5.690818e-03  1.702343e-03
        85      pv      0.02320422255        6.095531513       -3.816127724 -3.387144e-03 -4.887471e-03  2.493595e-03
        86      pv       0.8686210901        6.696668956       -2.039447741 -2.015193e-02 -1.337469e-02 -1.893041e-02
        87      pv      -0.9208328278        6.625711321       -2.066739088  1.794539e-02  1.493427e-03  8.524486e-03
        88      pv     -0.06350828203        7.936833365       -2.918238359  2.064731e-02  2.343615e-03  1.860965e-02
        89      pv      0.05587255584        5.164660091       -3.537082792 -4.801162e-03 -1.260325e-02  1.282599e-02
        90      pv      0.02589020127        3.654044377      -0.5877147909 -1.181030e-03 -1.863779e-03  6.346705e-03
        91      pv     -0.02320422255        2.868415449       0.5890116603 -2.430763e-03  2.989209e-03  6.586522e-04
        92      pv      -0.8686210901        3.469552892       -1.187668323 -3.082980e-02  1.206831e-02 -1.226930e-02
        93      pv       0.9208328278        3.398595257       -1.160376976  5.711357e-03 -9.607612e-03  1.108452e-03
        94      pv      0.06350828203        4.709717301      -0.3088777049  1.500073e-03  9.846706e-03  7.654197e-03
        95      pv     -0.05587255584        1.937544027       0.3099667282 -2.599299e-03 -1.096362e-02  8.880536e-03
        96      pv       -3.953470358        3.249631245         3.21132781 -2.313171e-05  5.736583e-04  3.415028e-03
        97      pv       -2.539094161        3.252248116        3.273306361 -8.420919e-04 -5.157927e-03  1.817004e-03
        98      pv       -4.336814157        2.327369779         3.65473859 -4.680173e-03 -3.054092e-03  1.867737e-02
        99      pv       -4.273563455        3.326071655         2.16930295  4.056283e-03 -1.687059e-02  1.692182e-02
       100      pv       -4.335293877        4.106577066         3.77120746 -1.463178e-02  2.490441e-02 -2.339466e-02
       101      pv       -2.229494528        2.481263055        2.768147969 -1.027863e-02 -4.789209e-03  2.132774e-02
       102      pv       -3.201225862        6.042438747        5.855815323 -3.303552e-03  1.027082e-02 -4.702166e-03
       103      pv       -3.250320286        6.889990775         6.98875553 -3.296455e-04 -9.919576e-04  2.368140e-03
       104      pv       -4.095737154         5.41529997        5.829771053 -9.301440e-03  8.043611e-04  8.201600e-03
       105      pv       -2.306283236        5.417377954        5.905767668  1.588093e-02 -7.236261e-04  1.451375e-02
       106      pv       -3.163607782        6.657219847         4.95346304 -3.163370e-04  2.000719e-03  3.634381e-03
       107      pv        -3.28298862        6.316614216        7.773374546 -1.892504e-03 -1.599724e-02  3.516526e-02
       108      pv     -0.02589020127        6.881160441        3.814830855  1.359664e-03 -7.538010e-03  5.226886e-04
       109      pv      0.02320422255        6.095531513        2.638104403  7.093658e-03 -4.080422e-03 -2.954579e-03
       110      pv       0.8686210901        6.696668956        4.414784387 -2.164912e-02  3.384523e-03 -8.748087e-04
       111      pv      -0.9208328278        6.625711321         4.38749304  1.441901e-02 -1.214839e-02 -1.271470e-02
       112      pv     -0.06350828203        7.936833365        3.535993769  2.060113e-02 -1.923686e-02 -8.727093e-03
       113      pv      0.05587255584        5.164660091        2.917149336 -1.135223e-02  3.397903e-02 -1.638861e-02
       114      pv      0.02589020127        3.654044377        5.866517337 -1.474040e-05 -4.311392e-03 -7.877169e-03
       115      pv     -0.02320422255        2.868415449        7.043243788  2.419013e-03  8.168269e-04 -1.366891e-03
       116      pv      -0.8686210901        3.469552892        5.266563804 -1.095319e-02 -6.727915e-03 -1.948420e-02
       117      pv       0.9208328278        3.398595257        5.293855152  3.992981e-03  1.459736e-02 -2.343553e-02
       118      pv      0.06350828203        4.709717301        6.145354423 -3.009946e-02  1.832690e-02 -5.362988e-02
       119      pv     -0.05587255584        1.937544027        6.764198856 -4.284621e-03 -6.822873e-03  7.625572e-03
       120      pv       -3.953470358        3.249631245        9.665559937  3.186508e-03 -2.642263e-03  6.318758e-03
       121      pv       -2.539094161        3.252248116        9.727538488  8.742479e-04  4.415348e-03 -2.280966e-03
       122      pv       -4.336814157        2.327369779        10.10897072  1.841591e-04  1.587612e-02  2.998024e-03
       123      pv       -4.273563455        3.326071655        8.623535077  9.545814e-03  1.295390e-02 -2.837115e-03
       124      pv       -4.335293877        4.106577066        10.22543959  1.268309e-02  3.033754e-02 -1.233387e-03
       125      pv       -2.229494528        2.481263055        9.222380097 -1.884813e-02 -1.096511e-02  1.203425e-02
       126      pv       -3.201225862        6.042438747        12.31004745 -9.590910e-03 -5.632114e-03  4.995304e-03
       127      pv       -3.250320286        6.889990775        13.44298766 -3.748606e-03 -2.326506e-03 -5.041694e-03
       128      pv       -4.095737154         5.41529997        12.28400318  2.257810e-03 -2.227801e-02 -8.795788e-03
       129      pv       -2.306283236        5.417377954         12.3599998 -8.646725e-03 -1.594682e-03 -2.543296e-02
       130      pv       -3.163607782        6.657219847        11.40769517 -2.531844e-02 -3.720597e-02 -2.502845e-07
       131      pv        -3.28298862        6.316614216        14.22760667  9.795563e-03 -9.397701e-03 -4.078215e-07
       132      pv     -0.02589020127        6.881160441        10.26906298 -5.338535e-03  3.122736e-03 -4.875444e-04
       133      pv      0.02320422255        6.095531513        9.092336531  6.849658e-03  8.700151e-04  2.433426e-03
       134      pv       0.8686210901        6.696668956        10.86901651  2.289721e-02  1.363849e-02  1.776784e-03
       135      pv      -0.9208328278        6.625711321        10.84172517 -1.377635e-02 -2.290604e-02 -2.569241e-02
       136      pv     -0.06350828203        7.936833365        9.990225896 -3.710965e-02  1.241902e-02 -2.934563e-02
       137      pv      0.05587255584        5.164660091        9.371381463 -1.217843e-02 -1.032029e-02  6.914109e-04
       138      pv      0.02589020127        3.654044377        12.32074946  8.427062e-04  4.904764e-03  3.027751e-03
       139      pv     -0.02320422255        2.868415449        13.49747592 -5.155119e-04 -4.082340e-03 -3.642972e-03
       140      pv      -0.8686210901        3.469552892        11.72079593  4.538636e-03 -1.779495e-02  1.389875e-02
       141      pv       0.9208328278        3.398595257        11.74808728  4.435831e-03  1.623943e-02 -4.837695e-03
       142      pv      0.06350828203        4.709717301        12.59958655  3.761676e-03 -5.247831e-03  7.429096e-03
       143      pv     -0.05587255584        1.937544027        13.21843098  1.346238e-02  6.591358e-03  1.343340e-02
       144      pv       -3.953470358        9.703863372       -3.242904318 -2.813759e-05 -5.230663e-03 -1.753745e-03
       145      pv       -2.539094161        9.706480244       -3.180925766 -1.043664e-03 -5.104968e-03  7.956701e-04
       146      pv       -4.336814157        8.781601907       -2.799493538 -1.669316e-02 -2.342777e-03 -4.510595e-03
       147      pv       -4.273563455        9.780303782       -4.284929178  3.963736e-03  3.254929e-03 -2.443830e-02
       148      pv       -4.335293877        10.56080919       -2.683024668  1.665079e-02  1.256042e-02 -3.069024e-03
       149      pv       -2.229494528        8.935495182       -3.686084158 -2.702054e-03  3.751572e-02  1.835175e-02
       150      pv       -3.201225862        12.49667087      -0.5984168043 -7.985622e-03 -7.346201e-03  3.640204e-03
       151      pv       -3.250320286         13.3442229       0.5345234025  2.499961e-03  8.838362e-04 -8.156817e-03
       152      pv       -4.095737154         11.8695321      -0.6244610749 -6.318853e-03 -2.332737e-03 -6.440768e-03
       153      pv       -2.306283236        11.87161008       -0.548464459 -2.898951e-02  2.744915e-02  2.294024e-03
       154      pv       -3.163607782        13.11145197       -1.500769087  1.889046e-02 -1.685030e-02  6.517392e-03
       155      pv        -3.28298862        12.77084634        1.319142418  1.888387e-02 -1.316801e-02  2.419579e-02
       156      pv     -0.02589020127        13.33539257       -2.639401273 -1.745627e-03 -4.190209e-03  7.499047e-03
       157      pv      0.02320422255        12.54976364       -3.816127724  7.788943e-04  4.280455e-03 -4.873178e-03
       158      pv       0.8686210901        13.15090108       -2.039447741 -1.960567e-02  8.104578e-04  1.005480e-02
       159      pv      -0.9208328278        13.07994345       -2.066739088  2.308480e-03  1.713320e-02 -2.573261e-02
       160      pv     -0.06350828203        14.39106549       -2.918238359  1.915915e-02  1.045856e-02  2.306695e-02
       161      pv      0.05587255584        11.61889222       -3.537082792  1.732318e-02 -1.095878e-03 -1.753812e-02
       162      pv      0.02589020127         10.1082765      -0.5877147909 -3.619667e-03 -6.192831e-04  8.417396e-03
       163      pv     -0.02320422255        9.322647577       0.5890116603 -1.895684e-03 -4.485475e-04  2.028207e-03
       164      pv      -0.8686210901         9.92378502       -1.187668323 -1.114356e-02 -2.303230e-02 -2.563110e-02
       165      pv       0.9208328278        9.852827384       -1.160376976 -1.511740e-02 -2.965813e-02  1.111645e-02
       166      pv      0.06350828203        11.16394943      -0.3088777049  5.299503e-03  4.409849e-03  2.706735e-02
       167      pv     -0.05587255584        8.391776155       0.3099667282  1.209008e-02  4.351352e-03  4.271807e-03
       168      pv       -3.953470358        9.703863372         3.21132781  2.028002e-03 -6.589145e-03  2.180268e-03
       169      pv       -2.539094161        9.706480244        3.273306361  9.416219e-04  1.065284e-03  7.357177e-03
       170      pv       -4.336814157        8.781601907         3.65473859  8.962739e-03 -5.981838e-03 -5.163154e-03
       171      pv       -4.273563455        9.780303782         2.16930295 -2.870309e-02  9.761774e-04 -2.382657e-03
       172      pv       -4.335293877        10.56080919         3.77120746 -3.642850e-03  1.593004e-03  9.959185e-03
       173      pv       -2.229494528        8.935495182        2.768147969 -1.549501e-02 -1.288587e-02 -1.497769e-03
       174      pv       -3.201225862        12.49667087        5.855815323 -9.543245e-03  3.218965e-03  5.062061e-03
       175      pv       -3.250320286         13.3442229         6.98875553 -1.237396e-04  2.594811e-04 -2.332466e-03
       176      pv       -4.095737154         11.8695321        5.829771053 -1.418512e-02  1.644300e-02 -1.083527e-02
       177      pv       -2.306283236        11.87161008        5.905767668  9.358168e-03  9.744561e-03  1.660711e-02
       178      pv       -3.163607782        13.11145197         4.95346304 -6.516822e-03  2.475432e-03 -1.688894e-02
       179      pv        -3.28298862        12.77084634        7.773374546  2.113601e-02 -1.974441e-03 -9.616270e-03
       180      pv     -0.02589020127        13.33539257        3.814830855  3.874524e-03 -3.263956e-03  1.181010e-03
       181      pv      0.02320422255        12.54976364        2.638104403  7.010873e-03 -6.627250e-04  3.625514e-03
       182      pv       0.8686210901        13.15090108        4.414784387  4.708086e-03  1.051622e-02  2.895028e-02
       183      pv      -0.9208328278        13.07994345         4.38749304  1.024138e-02 -2.041388e-02 -3.338946e-03
       184      pv     -0.06350828203        14.39106549        3.535993769  3.925496e-03 -1.359376e-02 -3.226928e-02
       185      pv      0.05587255584        11.61889222        2.917149336 -9.746533e-03 -2.829539e-02 -1.964798e-02
       186      pv      0.02589020127         10.1082765        5.866517337 -2.698699e-03  9.333577e-04 -2.236563e-03
       187      pv     -0.02320422255        9.322647577        7.043243788 -2.468288e-03 -8.274221e-03  1.399635e-03
       188      pv      -0.8686210901         9.92378502        5.266563804  8.427413e-03  6.046651e-03 -1.031455e-02
       189      pv       0.9208328278        9.852827384        5.293855152  1.070672e-02  4.568678e-03 -9.228154e-03
       190      pv      0.06350828203        11.16394943        6.145354423  1.659562e-02  1.689148e-02 -3.515866e-03
       191      pv     -0.05587255584        8.391776155        6.764198856 -6.527443e-03 -9.849603e-04  5.769907e-03
       192      pv       -3.953470358        9.703863372        9.665559937  6.316771e-04  6.587626e-05  6.496574e-03
       193      pv       -2.539094161        9.706480244        9.727538488  4.003457e-04 -2.124257e-03 -6.238753e-03
       194      pv       -4.336814157        8.781601907        10.10897072 -8.119832e-03  1.815655e-02 -1.234382e-03
       195      pv       -4.273563455        9.780303782        8.623535077  2.310969e-02 -1.068209e-02  1.031057e-02
       196      pv       -4.335293877        10.56080919        10.22543959  7.369317e-03 -2.283376e-02 -1.700092e-02
       197      pv       -2.229494528        8.935495182        9.222380097 -1.628380e-02 -7.449009e-03  2.258586e-02
       198      pv       -3.201225862        12.49667087        12.31004745 -6.916350e-03 -3.169434e-04  3.196282e-03
       199      pv       -3.250320286         13.3442229        13.44298766 -1.460963e-04  1.075744e-04 -7.052269e-04
       200      pv       -4.095737154         11.8695321        12.28400318 -2.151366e-02  1.934791e-04 -1.141856e-02
       201      pv       -2.306283236        11.87161008         12.3599998  1.021916e-02  3.894981e-03 -1.327010e-02
       202      pv       -3.163607782        13.11145197        11.40769517 -8.129619e-03 -1.159282e-02 -1.854750e-03
       203      pv        -3.28298862        12.77084634        14.22760667 -7.004172e-03 -1.068827e-02  3.005627e-03
       204      pv     -0.02589020127        13.33539257        10.26906298  3.339787e-05 -1.167435e-03 -2.260252e-03
       205      pv      0.02320422255        12.54976364        9.092336531  3.345027e-03 -1.972010e-03  9.906114e-04
       206      pv       0.8686210901        13.15090108        10.86901651 -3.177960e-03 -9.676988e-03 -6.386020e-03
       207      pv      -0.9208328278        13.07994345        10.84172517 -9.683228e-03  6.225650e-05 -5.247231e-03
       208      pv     -0.06350828203        14.39106549        9.990225896  1.075281e-02 -8.198408e-03  2.074232e-02
       209      pv      0.05587255584        11.61889222        9.371381463 -1.730792e-02 -3.859665e-03 -2.312062e-03
       210      pv      0.02589020127         10.1082765        12.32074946 -9.468037e-04 -1.124347e-02  9.028650e-03
       211      pv     -0.02320422255        9.322647577        13.49747592  6.268653e-04 -1.210917e-05 -3.314750e-03
       212      pv      -0.8686210901         9.92378502        11.72079593  2.614135e-02  3.084223e-02 -1.378682e-02
       213      pv       0.9208328278        9.852827384        11.74808728  2.335159e-03  6.508447e-03 -7.008099e-03
       214      pv      0.06350828203        11.16394943        12.59958655 -3.386529e-02  1.394393e-02 -1.244238e-02
       215      pv     -0.05587255584        8.391776155        13.21843098 -7.651381e-03  1.636510e-02  3.090983e-02
       216      pv         2.50076177       -3.204600883       -3.242904318  4.932960e-04  2.763447e-03 -1.471338e-03
       217      pv        3.915137967       -3.201984011       -3.180925766 -4.097713e-03  3.576874e-03 -4.342737e-03
       218      pv         2.11741797       -4.126862348       -2.799493538 -1.898664e-02  1.377351e-02  1.730230e-02
       219      pv        2.180668672       -3.128160473       -4.284929178 -4.352346e-03 -1.396086e-03 -2.724361e-02
       220      pv         2.11893825       -2.347655061       -2.683024668  1.597271e-03 -1.983011e-02  2.129864e-02
       221      pv          4.2247376       -3.972969073       -3.686084158  8.114251e-03 -6.075472e-03  8.741900e-03
       222      pv        3.253006265      -0.4117933809      -0.5984168043 -2.125139e-03  4.370750e-03  5.192514e-03
       223      pv        3.203911841       0.4357586475       0.5345234025  5.574317e-04  2.473419e-03 -7.042298e-03
       224      pv        2.358494974       -1.038932157      -0.6244610749  9.867882e-03 -5.812881e-03  1.112631e-02
       225      pv        4.147948892       -1.036854173       -0.548464459  2.239023e-02  2.098416e-02  3.020470e-02
       226      pv        3.290624346       0.2029877197       -1.500769087 -1.270907e-03  4.354912e-04  3.215896e-03
       227      pv        3.171243508      -0.1376179115        1.319142418  2.189776e-04  5.445493e-03  4.888120e-03
       228      pv        6.428341926       0.4269283134       -2.639401273  2.590018e-04 -1.360178e-03 -3.987222e-04
       229      pv         6.47743635      -0.3587006143       -3.816127724  3.590681e-03 -1.412598e-03  2.097572e-03
       230      pv        7.322853218       0.2424368285       -2.039447741 -1.624748e-04  2.970137e-03  7.450120e-03
       231      pv          5.5333993       0.1714791931       -2.066739088  1.563678e-02 -2.190034e-02 -1.635522e-02
       232      pv        6.390723845        1.482601238       -2.918238359 -2.605752e-02  2.021181e-03 -1.849494e-02
       233      pv        6.510104683       -1.289572036       -3.537082792  5.824135e-04 -6.861627e-04  1.462411e-02
       234      pv        6.480122329        -2.80018775      -0.5877147909 -1.642388e-03 -1.043737e-03 -1.444528e-03
       235      pv        6.431027905       -3.585816678       0.5890116603  2.826973e-03  6.527411e-03 -8.848171e-04
       236      pv        5.585611037       -2.984679235       -1.187668323  1.519255e-02 -3.626876e-02 -1.949497e-04
       237      pv        7.375064955       -3.055636871       -1.160376976  3.227181e-03 -1.204507e-03 -1.009002e-02
       238      pv        6.517740409       -1.744514826      -0.3088777049 -8.371762e-03  2.634830e-03  1.217263e-02
       239      pv        6.398359572         -4.5166881       0.3099667282  9.208659e-03  3.572938e-03 -4.277425e-02
       240      pv         2.50076177       -3.204600883         3.21132781  3.360045e-04 -1.125328e-03  5.276013e-03
       241      pv        3.915137967       -3.201984011        3.273306361  6.920383e-03  5.816626e-03  4.840036e-03
       242      pv         2.11741797       -4.126862348         3.65473859 -2.428397e-02  2.312146e-02  1.724696e-02